%mem=16GB
%CPU=0-71
%gpucpu=0,1,2,3=0,1,2,3
%chk=1ctz_II_S.chk
# polar def2tzvp apfd int=(grid=ultrafine)

1ctz_II_S 

0 1
Fe           2.96949259712666       20.83365024853816       13.00622134543475
N            4.50106974139430       19.84522316692982       12.17717470368209
N            3.61181695108219       20.20838224510873       14.79567373043368
N            1.56439050127902       21.90928477566213       13.90194758507273
N            2.42670795197845       21.50637097741868       11.21751571145179
C            4.80981224858809       19.81731118243505       10.85402382472790
C            5.75075085803694       18.75608602348384       10.56996087501897
C            6.01308595693383       18.15159318920358       11.75910423336058
C            5.22719268432435       18.85100016255713       12.75113158571592
C            4.46157016811143       19.18034000834113       15.05147652152718
C            4.55202356883853       18.93105048514036       16.47180463118162
C            3.70129566332077       19.81080507954128       17.06729421899508
C            3.11612194847731       20.59397592300707       16.00217587719851
C            1.48419378719607       22.24324151016159       15.21540045981962
C            0.39241827378834       23.16510504165677       15.44798674167328
C           -0.12500782496301       23.45365841309010       14.21179982055384
C            0.64326135636522       22.68712666591125       13.26472173865238
C            1.34199636622746       22.27806193503981       10.94984003335449
C            1.31933618760537       22.64740440503228        9.54757041611918
C            2.46148683080134       22.12340592952534        9.00302761887731
C            3.13374795303648       21.41780655334760       10.06233122717178
C            4.25639115397740       20.63013456509469        9.88088232060130
H            4.67238740322335       20.57525878977539        8.88626461544164
C            5.21761021206370       18.52770753652951       14.09524463514074
H            5.85140003260362       17.71769720812685       14.42223194647709
C            2.20482398674405       21.61364948341514       16.21524444753231
H            1.98748836188497       21.87931216426622       17.23843858555513
C            0.45186276809036       22.75746718569946       11.89391629332982
H           -0.34845291709537       23.38662782248602       11.53679312728170
C            6.28158015242709       18.44300402812747        9.21311894564407
H            6.78825141144311       19.31036561933321        8.78894206952378
H            5.47010122480471       18.16384168838967        8.54084271270954
H            6.98989033418564       17.61917925443830        9.25512713680606
C            6.90006899888916       16.99130072728209       12.05554632805699
H            6.32373097449376       16.16933346075326       12.48039463692656
H            7.67090989160931       17.27050652526669       12.77447900427291
H            7.38809221058819       16.63594201844398       11.15132863892268
C            2.93861542129812       22.20841587966209        7.59476316642096
H            2.33332906837868       22.90984772841720        7.02640528100522
H            2.87428429377390       21.23430202245806        7.10856874079858
H            3.97799754522601       22.53338579478655        7.56023279283309
C            0.29481881089560       23.40264669937927        8.85654869784473
H            0.65671307296646       24.08939139868927        8.09834907156992
C           -1.01470247090484       23.28707864140433        9.04772152897594
H           -1.43118196426394       22.58165242387665        9.74689696624173
H           -1.72062021969119       23.87972132846586        8.48978803285564
C           -1.21236919905969       24.41101965051246       13.86809402186237
H           -2.16574712514308       23.89297219110849       13.74937530171847
H           -0.99300904190424       24.92820778886209       12.93540948258894
H           -1.32082177310686       25.15071758809443       14.65890442927094
C            0.02517532432120       23.68605581351955       16.74461556864418
H            0.83782959556369       23.77738723603246       17.45626256626565
C           -1.20081860232376       24.03737414434966       17.12043254808466
H           -2.05429624359855       23.92271560958947       16.47562500761435
H           -1.39651568352651       24.42968846117260       18.10465542293429
C            3.38904007902074       19.98894792411533       18.51341984803791
H            3.91867358847801       19.25568400699477       19.11680188914765
H            2.31977762737609       19.87292948984560       18.69060939296127
H            3.68081610468455       20.98433362973357       18.85023854020981
C            5.41078326435968       17.87988480589152       17.08726314710461
H            5.23980707824543       17.81902888435512       18.15939954500792
H            6.46593336737761       18.10073342006101       16.92068836051246
H            5.19752629044873       16.90489760990339       16.64884997640761
C            5.25000019965865       25.93478524295123       12.98860599087920
H            5.48441980589302       26.38927116062834       13.95119847487135
H            4.36525354995805       26.41570623862355       12.58330403861514
H            6.08648779292006       26.11573125441611       12.31356852600829
N            5.94218910164811       23.61436055586991       13.63016101050204
H            6.87063228468675       23.86431247274271       13.92890114746468
C            4.99904413274247       24.47920799477681       13.13966051201692
C            5.39875459381489       22.37709269681108       13.63823909481208
H            5.90733728750733       21.49668505205018       13.97142256793055
N            4.17078003083951       22.40607817351696       13.18360525007408
C            3.90694636642791       23.70543681865749       12.86899204295117
H            2.95710024033025       23.99800916184449       12.47173471360944
C            1.14324839194139       17.66191777303537       15.23243318949147
H            1.13238101433712       16.70313430646010       14.71928641752900
H            0.53635360095930       17.58642481366000       16.13266649508051
H            2.16549948387362       17.88644850971023       15.52190668420003
C            0.59832223945003       18.75153640084415       14.32932485660506
H            0.61055494890415       19.71885854885097       14.82803298446878
H           -0.41459466182694       18.51448802442401       14.00640335893185
S            1.62408420776186       18.89266363976035       12.80631193672129
C            0.29178092465678       19.26253654053689       11.62312961417082
H            0.76287078358856       19.42306519575063       10.65942613245674
H           -0.23109426706308       20.16272916194769       11.92954304789537
H           -0.38329023131268       18.41228809222294       11.57124424144711


--Link1--
%mem=16GB
%CPU=0-71
%gpucpu=0,1,2,3=0,1,2,3
%oldchk=1ctz_II_S.chk
%chk=1ctz_II_Sn.chk
# apfd/def2TZVP int=(grid=ultrafine) geom=check guess=read pop=nbo scf=qc

1ctz_II_S_nbo

0 1


