%nprocs=12
%mem=16GB
%chk=1aeb_II_S.chk
# polar def2tzvp empiricaldispersion=gd3bj apfd int=(grid=ultrafine)

1aeb_II_S 

0 1
78
 xtb: 6.6.1 (8d0f1dd)
Fe          28.46707762892519       93.83661405883842       52.87614202836711
N           29.51367657236605       95.42570710304038       52.33202201333481
N           29.54749570572675       93.74550661758551       54.60854743050850
N           27.43882918107823       92.23044290188849       53.57979804924435
N           27.40817673190940       93.81928997807302       51.23266883162967
C           29.23004195024166       96.17395851970787       51.23172142471407
C           30.01017757152791       97.39289086768967       51.23043750299420
C           30.71989451017864       97.39362739428498       52.39152463045077
C           30.36379669475156       96.17377344340444       53.08264266430606
C           30.46929422403510       94.66570178918197       55.01459343497537
C           31.08173961120896       94.26847112109590       56.25651740278212
C           30.55392004963794       93.04379906898194       56.56914093645998
C           29.57059509409329       92.76191077225745       55.54127692937080
C           27.71020470271536       91.44805403127360       54.66069763310872
C           26.76693041771645       90.36572563617098       54.76540975895939
C           25.91781042335166       90.49104850065932       53.69694054418390
C           26.40995800346173       91.62104740812730       52.93184804503054
C           26.44468065490486       92.94027661241884       50.86123901959728
C           26.02382703290179       93.19823671042801       49.50075546164748
C           26.70313380060681       94.30458602214662       49.09456291942776
C           27.54481869498560       94.69705181720299       50.20554397633845
C           28.36888750437576       95.80729044602715       50.20934795797481
H           28.31077882694011       96.46664515812390       49.35625206110176
C           30.82131194784134       95.82109610835688       54.33698730082504
H           31.52909688428377       96.48228018273633       54.81311198116330
C           28.74610980696895       91.65442527165690       55.55259285398747
H           28.88859752273584       90.92465453312175       56.33422165633112
C           25.92691795407816       91.95031877167963       51.67624462726818
H           25.13319228224290       91.33905461302514       51.27358365801744
C           31.68956280409490       98.40115429109409       52.90954789702379
H           31.34260007118761       98.82234140726891       53.85404279261458
H           31.82103400696855       99.21240357513464       52.19770863262733
H           32.66134563436884       97.93938734118437       53.08467779835874
C           30.00384207018734       98.39720226224652       50.12933137948512
H           29.00219704572944       98.80089930385827       49.97852036764105
H           30.32604669871986       97.93696072191381       49.19500594220025
H           30.67821405288644       99.22135939351294       50.35103104332416
C           32.04789013061171       95.08740014719396       57.04019460266342
H           31.77667530546026       96.14193436845414       57.00163942785221
H           33.06211846052710       94.98433423224439       56.64924868473005
H           32.04661257489933       94.76674397229399       58.08053290189092
C           30.81890346278808       92.20192669152425       57.71440261863877
H           29.97443080196843       91.63347690143179       58.08532762829763
C           31.99554751031787       92.07625405465841       58.32043742597825
H           32.87631672822402       92.58499619231014       57.96789256258232
H           32.12315964591630       91.43779105253799       59.17859011626231
C           26.71970141737308       89.38211185278909       55.88181484822423
H           26.98066032940720       89.85575156356863       56.82705154633512
H           27.42278345824655       88.56482491968389       55.70708744138665
H           25.71972736168199       88.96139709841725       55.96750402590035
C           24.77123621152503       89.68917376577905       53.33267779610143
H           23.98063512380219       90.22057817650361       52.81421683282002
C           24.61410372876952       88.39101515488896       53.57277355680153
H           25.37862231973339       87.79199138229744       54.03557371465494
H           23.71514515739941       87.87211824236975       53.28335061897222
C           24.99705964845529       92.39508781505990       48.77742602636680
H           24.02700571446995       92.48432885696261       49.26777162761947
H           25.27065073350298       91.34012971787122       48.76847105180519
H           24.88980287676795       92.73271584049728       47.74970127212409
C           26.63509758082723       95.02902520483826       47.79358427311696
H           25.95233826133682       94.53295074643179       47.10707812806386
H           27.62030022059667       95.07700313563255       47.32858302698025
H           26.28353111431004       96.05092751630454       47.94276200006610
O           26.91999999999875       95.14800000000332       53.86999999999227
H           26.17999999999816       94.60199999999772       54.13500000000186
H           27.00199999999753       96.02400000000164       54.00200000000309
C           31.03027256309834       89.78282007154881       49.99195043605999
H           31.74072451443550       90.05500427946590       49.21196979404093
H           30.11683817007389       89.42853579005438       49.52359554872943
H           31.45944102063014       88.96881125637519       50.57591800315113
N           31.70795902869341       91.69947036250832       51.45563113567965
H           32.69792049617878       91.53666873685704       51.38455248052578
C           30.72788193415531       90.95253679002387       50.85507640081144
C           31.10314352130697       92.68708877080914       52.15285075476339
H           31.62369792351740       93.42456160439687       52.72914123162790
N           29.80078105214987       92.61155167902419       52.03028966441221
C           29.55212242530607       91.53501512439392       51.22938343919405
H           28.55180078958610       91.24730082686881       50.97972433575351



--Link1--
%nprocs=12
%mem=16GB
%chk=1aeb_II_S.chk
# apfd/def2TZVP empiricaldispersion=GD3BJ int=(grid=ultrafine) geom=check guess=read pop=nbo scf=qc

1aeb_II_S_nbo

0 1

--Link2--
%nprocs=12
%mem=16GB
%chk=1aeb_II_S.chk
# apfd/def2TZVP empiricaldispersion=GD3BJ int=(grid=ultrafine) geom=check guess=read scrf=(smd,solvent=Chloroform) 

1aeb_II_S_solv 

0 1 


