%mem=16GB
%CPU=0-71
%gpucpu=0,1,2,3=0,1,2,3
%chk=1a2f_16_opt.chk
# opt uapfd/gen scf=maxcycle=999

1a2f_16_opt

1 6
Fe          -5.55469789971373       57.02685351701475      111.71794607336787
N           -6.34303205589675       56.07942253128363      113.33026166900079
N           -6.48992377601611       58.77078832622914      112.31027066813687
N           -4.72693500654336       57.98845898467173      110.15831939067347
N           -4.58573429021359       55.31603137123248      111.19405230336803
C           -6.17268038331746       54.77820588635196      113.67667088448007
C           -6.91339316030416       54.46102299410545      114.85057322460761
C           -7.56426464847686       55.62482260716116      115.22631070652292
C           -7.19536762017386       56.61954468177591      114.26641318316346
C           -7.31849434138386       58.93233819294962      113.37426776856525
C           -7.83115773210562       60.27845934663796      113.41795680850664
C           -7.30315248251271       60.93456260922940      112.33003990952363
C           -6.45358464710965       59.97067841555143      111.64385266648586
C           -4.92659602550563       59.29400401971086      109.79806907330263
C           -4.21435287138701       59.61409920946068      108.62511416152429
C           -3.54587718488627       58.43596320007661      108.23574563048005
C           -3.88196779747491       57.45218597287833      109.22504512478653
C           -3.76642965602747       55.14815868453957      110.13289428747201
C           -3.26947441363387       53.78617595175303      110.08441582421555
C           -3.81655903904168       53.13509384272229      111.15025236141626
C           -4.64411706113972       54.10297774113309      111.84734772475403
C           -5.36526197002529       53.84647682630942      112.97699421697270
H           -5.32483232205778       52.84930390074152      113.38640882773333
C           -7.64438722456858       57.93599809374960      114.29007425400829
H           -8.32004162764201       58.20133428591323      115.08813068623986
C           -5.75160141679793       60.21549632720214      110.49851443352544
H           -5.83346495725293       61.19875677024671      110.06327176492670
C           -3.43834978394937       56.13077156583301      109.20735657424304
H           -2.77882324018145       55.84259913728219      108.40450226463875
C           -8.46677591795621       55.85212031888717      116.38436332353692
H           -8.60252880464809       54.93806591158884      116.95471493826405
H           -9.44541506721205       56.19567398483543      116.04927760442055
H           -8.05483772826512       56.61174827875800      117.04891732728993
C           -6.94679149596818       53.12558355650489      115.50430262926935
H           -5.94727789531021       52.82825852086143      115.82101288413585
H           -7.32083986515700       52.36926103908282      114.81457478672520
H           -7.59095859352323       53.13843960121712      116.37854813333425
C           -8.70322135628345       60.82483442499627      114.48896261589303
H           -8.45137924380246       60.38914721535954      115.45366516551526
H           -9.75217912490186       60.60673946382236      114.28434212538001
H           -8.58499870019572       61.90413229545626      114.55219879216521
C           -7.48190838594906       62.30417423697860      111.91425116019028
H           -6.64025613319169       62.74928371377218      111.39880658797674
C           -8.58207338850555       63.03026568627472      112.10177358670683
H           -8.63760006511605       64.05273640027274      111.77065055964768
H           -9.47019670305241       62.62572571595973      112.55373509305007
C           -4.12467876570112       60.95281448902745      107.98690062255868
H           -4.24993915047289       61.74580924331416      108.72058379388734
H           -4.89685169367432       61.07414463130666      107.22539706441783
H           -3.15398296469855       61.07479986008534      107.51145929943799
C           -2.68322270964409       58.21446984894269      107.11416099638539
H           -1.97411897682486       57.40335239948156      107.22301770477360
C           -2.69314687157504       58.89511184033223      105.96239686624364
H           -3.40917247031791       59.66798843728517      105.75090289635446
H           -1.99562285853528       58.66163379567286      105.17692813588857
C           -2.34046003098729       53.27444766632939      109.04401244197463
H           -1.40465655046342       53.83244166277582      109.06299061903856
H           -2.77875249315985       53.38360572339052      108.05229661140277
H           -2.11633418162460       52.22434831210670      109.20668406050466
C           -3.64397931521406       51.72496778181653      111.58176007828321
H           -2.99446270181823       51.18590411778895      110.89846170562875
H           -4.60691676713266       51.21648776690292      111.61692856411344
H           -3.20542540067917       51.68400162117445      112.57837590403095
O           -3.61913491980605       57.72608961784238      113.17395559714521
H           -3.77025482158468       57.59896552592588      114.11448865746661
H           -3.33904058406387       58.63703976979545      113.04997117974062
C           -9.24377270372744       55.26957711428737      107.34580170463036
H           -9.94801164475532       55.98874645801281      106.92879781320923
H           -9.75852556962920       54.31544774785728      107.45453307758339
H           -8.42126290865939       55.14369264684965      106.64879400992014
N           -9.54437800133557       55.99051808862486      109.72401072357493
H          -10.54660350136425       55.88570743009294      109.73100200158851
C           -8.72686815690608       55.73900826041153      108.65359030990903
C           -8.76719980710824       56.39735135625740      110.74762458230492
H           -9.14098687024129       56.66323630997522      111.71585710326133
N           -7.50549287528190       56.42156995998933      110.39869238529933
C           -7.46351505119291       56.01404092431691      109.09705619751472
H           -6.53343557746168       55.94690423369168      108.57039751177781

C N O H 0
6-31G*
****
Fe 0
TZVP
****


