%mem=16GB
%CPU=0-71
%gpucpu=0,1,2,3=0,1,2,3
%chk=1cxy_12_opt.chk
# opt uapfd/gen scf=maxcycle=999

1cxy_12_opt

1 2
Fe          29.06488877539989       25.20971415980130       13.22996059133923
N           27.64183452753450       25.83405288718862       11.95403367691926
N           30.25722781405276       26.70504680788988       12.63029049718336
N           30.48062054801651       24.59344524439481       14.51653177274635
N           27.87204534574644       23.69510875983058       13.81122966096290
C           26.40240901517597       25.29450709562170       11.77965108450190
C           25.66265190195995       26.03648030582930       10.78422973021804
C           26.48866263922972       27.03227712477408       10.35637971847979
C           27.71934925196005       26.88992294668908       11.10110043210994
C           29.98698720818230       27.63187147219926       11.67294950435411
C           31.10444881526434       28.53513105446544       11.51180005857737
C           32.05452939573409       28.13375106685287       12.40222472642261
C           31.50680835046252       26.98682371699880       13.09107468571890
C           31.68711848460962       25.17558872811991       14.74151749919667
C           32.39762423518187       24.48038015863555       15.79408961952877
C           31.58213918321070       23.44871588786914       16.18661679144451
C           30.39519947518386       23.53946008177507       15.37526482561096
C           28.17997949277092       22.71589365367901       14.70299439881647
C           27.08141346316205       21.78084422236179       14.82306678921503
C           26.08726125276252       22.25286283006452       14.00549479353243
C           26.60865857067604       23.43504679067951       13.37325198320382
C           25.91087544725443       24.18363315722100       12.43820955398370
H           24.90881203847204       23.86425971290377       12.19680813902091
C           28.81001489700703       27.72662348582235       10.95539356333012
H           28.73220565795490       28.52205631270643       10.23119587851973
C           32.17518047564358       26.29026185094613       14.08081836573104
H           33.15407527800108       26.64689819019010       14.36108229463198
C           29.33120501939030       22.66039036434053       15.46459176597414
H           29.39292693527128       21.87522448339868       16.20126994142304
C           24.27413450201439       25.71415474201014       10.35734691067649
H           23.59213046550077       25.75308411096847       11.20630776803489
H           24.22565702494086       24.71220705899572        9.93148584180991
H           23.92743593947661       26.42017392075936        9.60845000527968
C           26.24194412380692       28.08780012936417        9.33805049761154
H           26.97131055776397       28.01894131118644        8.53160321023390
H           26.32566496708936       29.07773854977816        9.78547118939810
H           25.24846039863344       27.98829222905971        8.91033958776080
C           24.74517635140967       21.66551614020161       13.74900599176449
H           24.65781013950208       21.34400842699562       12.71111731286032
H           23.96046794321132       22.39693714638413       13.94103832525938
H           24.57967185381616       20.80155235502730       14.38603671689944
C           27.04542129003827       20.58129744394605       15.63681619805283
H           26.09748176872931       20.37828610933131       16.12042491587777
C           28.04839521315740       19.72403798789664       15.78328711916197
H           28.98907056483062       19.85058322935138       15.27367244987309
H           27.94964070380776       18.84403128434257       16.39504350175779
C           31.85516996177095       22.38725330292511       17.18943970210520
H           31.48557519309106       21.42360886002630       16.84444677808656
H           31.36488966772197       22.61492798484605       18.13663395535390
H           32.92517513879027       22.30839908724495       17.36716981702995
C           33.71609467047611       24.83672802289360       16.27438523252933
H           34.39359856087865       25.24001268380027       15.53184628072087
C           34.12973870692564       24.71190898351960       17.53074184071416
H           33.48213175195857       24.36362725751900       18.31608104663544
H           35.12939251386541       24.98541573901926       17.82116959097316
C           33.40191533506638       28.70596688908049       12.66618812751811
H           34.17774022437462       27.96535838366498       12.47354754430365
H           33.48721491630121       29.02228625208838       13.70546721823275
H           33.58661414448486       29.56719790165480       12.03079127172123
C           31.13773500183723       29.66363052763568       10.54381870724364
H           32.08677725318305       30.18936155713121       10.59542379389673
H           30.33983352630108       30.37427868492176       10.75754342418611
H           31.00207216523264       29.29876651839711        9.52621625392332
C           28.29990039795349       28.83232783957531       17.45247754383749
H           27.92518972526937       28.44367331313207       18.39866461272281
H           27.77636588259937       29.76321756138314       17.23749580910491
H           29.35885095893245       29.04513101774690       17.55860818210964
N           26.85221701034664       27.38727319412603       16.00937765316157
H           25.98212955270533       27.65808221756773       16.44017659509229
C           28.09189028182642       27.84961111493502       16.36261415394526
C           27.00654248970353       26.51608631796971       14.99589272171185
H           26.19984128023256       25.99826378491191       14.51816506758668
N           28.27546470720866       26.39372563915557       14.67884243157687
C           28.96358490317694       27.21832707680910       15.52149683453080
H           30.02907140278284       27.30434557868334       15.47052161832241
C           32.48620295060884       22.46266246916582        9.72982626616050
H           32.43378899161316       22.70636246476279        8.66931768333356
H           32.55351772906277       21.37955615523951        9.82548523314598
H           33.38637007049909       22.90501412519182       10.14444654606464
N           30.01959897597333       22.59345226987635       10.13472898103168
H           29.76645340321487       21.93933762004160        9.41081526024646
C           31.29604587588113       22.97961944499250       10.44621067229595
C           29.17648792069307       23.23813832264666       10.96153661792422
H           28.11134363953721       23.12689907583279       10.94294406105502
N           29.84046464200650       24.01616667926865       11.78572628954963
C           31.16150355335486       23.86574291947956       11.47708361413693
H           31.92147761953438       24.39834043228186       12.01001508116112

C N H 0
6-31G*
****
Fe 0
TZVP
****


