%nprocs=12
%mem=16GB
%chk=1aa4_II_S.chk
# polar def2tzvp empiricaldispersion=gd3bj apfd int=(grid=ultrafine)

1aa4_II_S 

0 1
78
 xtb: 6.6.1 (8d0f1dd)
Fe          28.32215460019865       93.72687085755993       52.93798276101281
N           29.34791793288814       95.34755535498826       52.35330279175777
N           29.37071784693376       93.69481978169964       54.66080059079106
N           27.30892771774309       92.13000381732216       53.58141552416173
N           27.23700259953251       93.78722038244835       51.29011767709946
C           29.11583258597798       96.08036971612448       51.23118145939501
C           29.91859923154011       97.28213368256900       51.22735476713387
C           30.61133879246620       97.27960476682814       52.39876871404530
C           30.23125048593040       96.07100890355203       53.09337194762224
C           30.31614076504968       94.59434257505778       55.04929574374250
C           30.92196218041116       94.19941209642266       56.29478226818681
C           30.36603996769855       92.99214500180683       56.62601345147009
C           29.39027506538964       92.70706753150664       55.59100809404660
C           27.58596729244727       91.34395513576104       54.65619499643780
C           26.65784940677244       90.24655381454727       54.74595199859990
C           25.81274325670240       90.36942298706710       53.67521519393453
C           26.27549782840028       91.52854562166571       52.93818921102802
C           26.27316454724709       92.90948872002853       50.91457532975434
C           25.83212358906963       93.17665646281486       49.56390564069405
C           26.52293368810918       94.27127343816166       49.14926589345584
C           27.39681823900517       94.63838958465475       50.24206135313718
C           28.24472171100285       95.72776748575778       50.21488758013712
H           28.21125510837718       96.36218885674919       49.34218534079003
C           30.70412099466228       95.71948076273104       54.34155860725819
H           31.42892178403985       96.37418920761323       54.80204966755606
C           28.57409480196758       91.59389201234572       55.59119544946610
H           28.70880481782549       90.87042034099883       56.38031119572450
C           25.78297440472032       91.88081715981883       51.69454800933767
H           24.99386344342815       91.27325503733547       51.27709683472250
C           31.58025006661799       98.28365522356155       52.92227320401623
H           31.24575092434033       98.68263522989771       53.87967107196319
H           31.68984926602704       99.11241372764552       52.22740951570476
H           32.56001117556614       97.82998152355152       53.07164415951461
C           29.92066028828807       98.28741774187922       50.12672280480362
H           28.92329462952753       98.70556335542513       49.98704617540011
H           30.22611636171451       97.82417623203655       49.18814261827312
H           30.60556062100985       99.10349307662105       50.34555245270909
C           31.89265421097724       95.02541108432713       57.06584214492018
H           31.57146637698419       96.06572735162726       57.08256941528050
H           32.88718138311265       94.98375127423898       56.62107201113475
H           31.95546350300611       94.66639081304319       58.09076022620560
C           30.59919495568537       92.16859136467704       57.79180041177049
H           29.73318102708497       91.63532908213392       58.16923160521969
C           31.76438618795962       92.01925750522639       58.41409730697198
H           32.66835372527533       92.48911089578351       58.06664595924753
H           31.85692325833483       91.39779644345666       59.28947846664006
C           26.62511951105624       89.24351558009836       55.84574092101801
H           26.85650331092561       89.71054340150221       56.80172819394021
H           27.35693193015366       88.45302942860101       55.66902403093709
H           25.63793844649895       88.79264883651938       55.91276998302834
C           24.67689161740411       89.56362446116631       53.29072379605999
H           23.87771110099791       90.09794502186936       52.78794319431763
C           24.54651256055692       88.25734178759994       53.50057915454143
H           25.33123008326527       87.67037231715608       53.94531924875280
H           23.65730148067127       87.72457477837710       53.20507760285725
C           24.78071655689701       92.39287768651718       48.85660910831861
H           23.82793461380622       92.47023130206416       49.38224010064342
H           25.05385016123434       91.33884669217426       48.80922289207424
H           24.64279593967520       92.75699696772892       47.84215106771082
C           26.44349471129632       95.00180039532162       47.85365237597954
H           25.64109161105133       94.60697702431429       47.23778798464195
H           27.37996604880120       94.90896854129215       47.30521397407194
H           26.25440514766658       96.06117717373856       48.02367552510749
O           26.86899999999425       95.16399999999759       53.84400000000191
H           27.08899999999925       96.04099999999661       53.52800000000403
H           26.20400000000252       94.95499999999957       54.39500000000351
C           30.82850049476286       89.64352782586566       50.10171436539296
H           31.38402238481058       89.89624193620192       49.19848913188691
H           29.89197966899540       89.17543603923424       49.81458082753944
H           31.41636928934260       88.92488009107302       50.67312152118831
N           31.54299484877784       91.64745425505181       51.42388713827360
H           32.53194130480092       91.49726364135114       51.31238770510632
C           30.54930717744838       90.85599226463327       50.91226492311576
C           30.95397803575262       92.64836712892203       52.11745610135641
H           31.48907154518101       93.42092629589118       52.63075592192381
N           29.64797924223198       92.53946012500603       52.07391710780630
C           29.38145362309221       91.43025330376071       51.32607234936447
H           28.37390042869887       91.12208982397837       51.13786655716446



--Link1--
%nprocs=12
%mem=16GB
%chk=1aa4_II_S.chk
# apfd/def2TZVP empiricaldispersion=GD3BJ int=(grid=ultrafine) geom=check guess=read pop=nbo scf=qc

1aa4_II_S_nbo

0 1

--Link2--
%nprocs=12
%mem=16GB
%chk=1aa4_II_S.chk
# apfd/def2TZVP empiricaldispersion=GD3BJ int=(grid=ultrafine) geom=check guess=read scrf=(smd,solvent=Chloroform) 

1aa4_II_S_solv 

0 1 


