%mem=16GB
%CPU=0-71
%gpucpu=0,1,2,3=0,1,2,3
%chk=1cih_II_S.chk
# polar def2tzvp apfd int=(grid=ultrafine)

1cih_II_S 

0 1
Fe           2.97718741064960       21.02115428659018       13.01374399533572
N            4.42792978824747       19.97104394423499       12.18056900053628
N            3.60544641569135       20.45336431703734       14.82838583507263
N            1.52895114931304       22.12212536110286       13.89038831306080
N            2.35179471042244       21.65684047465003       11.22455055808106
C            4.70989554973258       19.89567007649650       10.85471776093644
C            5.73872643237843       18.90821580593441       10.60893041558885
C            6.04442548972317       18.36734061546066       11.81814863387643
C            5.23263942868047       19.06470030687216       12.79184129424324
C            4.46262236706782       19.43062090169934       15.09155845916121
C            4.55497625853674       19.19221162505341       16.51386620170162
C            3.68206531607518       20.05523096479352       17.10115716831950
C            3.09365702190811       20.82712114056145       16.02967413459962
C            1.39446213849959       22.39001838158467       15.21535838616230
C            0.29492415409165       23.30455185051701       15.44770418038365
C           -0.20552358672208       23.61422748923744       14.21096955085197
C            0.59455700529581       22.88679446720892       13.25960319203811
C            1.29995727485744       22.46835505010995       10.95180402830014
C            1.25383479199523       22.78807608612852        9.53783010218789
C            2.33538521106856       22.16096313656036        8.97580943949090
C            2.99337025728991       21.45245626333548       10.04274395411464
C            4.09518859797843       20.63335579218488        9.86213794993432
H            4.46446592105581       20.51251528253021        8.85503578996178
C            5.24297068626418       18.78882845472165       14.14681361152211
H            5.90903712331232       18.01321121066166       14.49312078097435
C            2.11935450007170       21.78767448474071       16.22618371040112
H            1.85804383922564       22.02981418426776       17.24481001464641
C            0.41319467570682       22.96585150657329       11.88906193398427
H           -0.41132422790414       23.56288126161513       11.53045700103365
C            6.27782564891270       18.57327499354586        9.26058007280505
H            6.70331401526357       19.45837454802097        8.78688690918922
H            5.48552389172207       18.19289789868518        8.61548698446282
H            7.05467805557986       17.81589799192745        9.33129561223792
C            7.02089950001996       17.29272596066158       12.15384917449139
H            6.51326678871212       16.45150620017711       12.62603970450395
H            7.77825771342673       17.66191348703312       12.84613824593185
H            7.52171357422175       16.93130758612436       11.25909845979843
C            2.81434582748067       22.22676485934521        7.56773475256893
H            2.46988539582867       21.36224280561716        6.99737386435308
H            3.90244677107457       22.24258378341515        7.53198461402658
H            2.43574190393427       23.12662983630154        7.08663780447254
C            0.26607563764803       23.64074867634896        8.91638599520617
H           -0.13685362426331       24.42673236785263        9.54488581572669
C           -0.17757397570814       23.52933372643001        7.66812581888458
H            0.14759832439831       22.74159487913971        7.01155631474961
H           -0.90748102204623       24.21308956580048        7.26741459877580
C           -1.29576683949824       24.56872964822809       13.86805899370512
H           -2.23218773120978       24.04045845427936       13.67964002937229
H           -1.04530230926523       25.13806615637535       12.97411551118580
H           -1.45369981237948       25.26444068668129       14.68973876653558
C           -0.11273780176572       23.78570141923840       16.74884588844560
H            0.68398209101194       23.90167476369560       17.47476581470553
C           -1.35883836798591       24.07687288104740       17.10806278242845
H           -2.19485503172262       23.93592466120752       16.44535367605037
H           -1.58926090004667       24.44456861608080       18.09433539532155
C            3.35538962105278       20.23223109973243       18.54412416660228
H            3.92872219199619       19.54191297799571       19.15813674459444
H            2.29520686497406       20.05005009338104       18.72159826319519
H            3.58193372739770       21.24859684964130       18.86750051648988
C            5.42168002082805       18.15266259366524       17.13801863807480
H            5.29007001701463       18.13633832445574       18.21716463223932
H            6.47250816292556       18.34993618259612       16.92383714617883
H            5.17763686677139       17.16463717758012       16.74706313668379
C            5.26907325010675       26.10695202760868       12.83941049710598
H            6.08052439532223       26.27931459774750       12.13242686282327
H            5.53920407978796       26.57096073394468       13.78803833473646
H            4.37093517739548       26.58540729596852       12.46172779824639
N            5.98533115131355       23.79093388671943       13.46858282285805
H            6.92741250571449       24.04138391696062       13.72036408136471
C            5.02189963721833       24.65343126678276       13.01480605056006
C            5.44021203896342       22.55492958041135       13.51421840357140
H            5.96219510107685       21.67658336421345       13.83252899352241
N            4.19199300944904       22.58252767238368       13.11699798668727
C            3.91661163343198       23.88000147403003       12.80327169200956
H            2.94950251920895       24.17029320777526       12.44878141564978
C            1.15460003378225       17.87787635016349       15.33897514165462
H            0.55203795352634       17.81056915789521       16.24274976866785
H            2.17270094646539       18.13023993779428       15.61976218324551
H            1.16236358857329       16.90750802999608       14.84810544740524
C            0.58340947677471       18.93427978634755       14.41289565309461
H            0.57577326952655       19.91296087999728       14.88888142233216
H           -0.42548993973965       18.66764003373861       14.10008980116971
S            1.59783430587431       19.05853459836299       12.88159137444099
C            0.25706016149995       19.42382467539011       11.70756330994994
H           -0.25409820333265       20.33403075527350       12.00419638184083
H           -0.42733451511858       18.57996157792205       11.67700829387750
H            0.71888752631923       19.56321871779970       10.73621604279300


--Link1--
%mem=16GB
%CPU=0-71
%gpucpu=0,1,2,3=0,1,2,3
%oldchk=1cih_II_S.chk
%chk=1cih_II_Sn.chk
# apfd/def2TZVP int=(grid=ultrafine) geom=check guess=read pop=nbo scf=qc

1cih_II_S_nbo

0 1


