%mem=16GB
%CPU=0-71
%gpucpu=0,1,2,3=0,1,2,3
%chk=1cgn_II_S.chk
# polar def2tzvp apfd int=(grid=ultrafine)

1cgn_II_S 

0 1
Fe          10.57746259242030       33.17111644432104       38.31282078306804
N           10.03539715640244       34.42047598074902       39.75018800509729
N            9.60056352281356       34.30864205356018       36.96462605302789
N           10.82524096547384       31.78485210797359       36.86380856671303
N           11.17972667127518       31.83069363603923       39.66310472598466
C           10.22932103726291       34.24934268999779       41.08932649576190
C            9.60008839472389       35.30989134819978       41.84239294124126
C            8.98844229723166       36.11183654077026       40.93023082007927
C            9.27057204952645       35.54156442237242       39.63208278329007
C            9.00014413584870       35.51061868792745       37.19979338858055
C            8.53994864911071       36.11110176482251       35.96831303143309
C            8.89097733303855       35.25417266429761       34.97304026637698
C            9.52364085827590       34.12534113552628       35.61729660242519
C           10.57206422199473       31.91797467436506       35.53407562906705
C           11.01584809073991       30.74972318695180       34.80032465587199
C           11.51333939712401       29.88394404133917       35.73657875161190
C           11.39298050573409       30.55116854857561       37.00750701196426
C           11.72043151567724       30.60320491705757       39.43563829852701
C           12.24215826053767       30.03221701034516       40.66074008294657
C           12.01439562465496       30.96407957931261       41.63874782372631
C           11.33612137429628       32.06138998151630       41.00070781485463
C           10.92764567795312       33.20548952299720       41.66525812027742
H           11.07059897517740       33.23650314117656       42.73503735110670
C            8.83057374126622       36.08842998180396       38.44228975025481
H            8.28461101666732       37.01802246229838       38.49147474544939
C            9.98715474599742       33.01777059632395       34.93674420152747
H            9.84896132108826       32.99513358928083       33.86676497648050
C           11.78662003402670       29.98284178119195       38.20459363310133
H           12.20055572410312       28.98697931358403       38.16899712990129
C            9.62617055948313       35.41534047654329       43.32870796124062
H           10.65222517535850       35.47987755400583       43.69212197801097
H            9.16146157851212       34.53974604336702       43.78231294551821
H            9.08907373959989       36.29948887052252       43.66271211211654
C            8.16774026716926       37.33609962365706       41.14872475839498
H            7.16292089675921       37.19821034799104       40.74946045041554
H            8.61639726104070       38.19373205670824       40.64677867651259
H            8.08657262766793       37.56325202944861       42.20878391021025
C           12.41773113859998       30.91960911686217       43.07145696549107
H           11.58517568623789       30.60077435655964       43.70050799123088
H           12.74124149166617       31.90163301970843       43.41372163352803
H           13.23698086526997       30.21599692439343       43.20532391993006
C           12.89663343386975       28.74585507787900       40.75853219425015
H           13.46292390932303       28.44080244168413       39.88627972369924
C           12.84618060663473       27.93453171859216       41.80988260659224
H           12.26015046440036       28.16353231396365       42.68240499606802
H           13.37013469929848       26.99324359032584       41.82053807187393
C           12.14567083892497       28.55344167497187       35.52250877803638
H           11.44230027673755       27.74958767205204       35.74496380788162
H           13.01421761410057       28.42941938379723       36.16757383828347
H           12.46434421978541       28.45458067915284       34.48684340681147
C           10.91673967416775       30.59008588600262       33.36551495387638
H           11.04594560989655       31.49528521302889       32.78307933613272
C           10.67991350881824       29.44608516741486       32.73249492678034
H           10.49505026096153       28.52704834975813       33.26052367257670
H           10.63395548096632       29.39628419563761       31.65716242813133
C            8.66785414533091       35.36678252837453       33.50413463591192
H            8.17273391748792       36.30303456015730       33.25932290159046
H            8.04595044562936       34.54598745633716       33.14666636610649
H            9.61671096373411       35.33022554802388       32.96834104258556
C            7.84006862441237       37.42357183647151       35.88332589265198
H            7.61746903385921       37.67686594865582       34.84975351144210
H            8.45708953223508       38.21615235642941       36.30644615695779
H            6.90223010191324       37.39216095012593       36.43793371595667
C           15.25477236185948       35.30129003604835       36.13206204432314
H           16.17071914722847       34.72010282603810       36.23671552484881
H           15.48991803333307       36.34684644707949       36.32996415095235
H           14.90061643597329       35.21118183147249       35.11008612216687
N           14.37659723844523       34.81286286665778       38.42531579840855
H           15.19411772011715       35.13538745334566       38.91653364665566
C           14.20997796427336       34.81030966797653       37.06563836452244
C           13.25146440842503       34.30603788938379       38.97846298830967
H           13.09988536325441       34.18752565033198       40.03250341043272
N           12.37957982867825       33.98091244549679       38.05088391607939
C           12.96487943437229       34.29106567574357       36.85457666293540
H           12.45192752374556       34.11963043714791       35.92991266382013


--Link1--
%mem=16GB
%CPU=0-71
%gpucpu=0,1,2,3=0,1,2,3
%oldchk=1cgn_II_S.chk
%chk=1cgn_II_Sn.chk
# apfd/def2TZVP int=(grid=ultrafine) geom=check guess=read pop=nbo scf=qc

1cgn_II_S_nbo

0 1


