%mem=16GB
%CPU=0-71
%gpucpu=0,1,2,3=0,1,2,3
%chk=1cpt_01_opt.chk
# opt polar def2tzvp apfd int=(grid=ultrafine)

1cpt_01_opt

0 1
Fe          36.66002791132483       13.12486196358624       86.92195683184629
N           34.73384628972483       13.20846014001651       87.42111871294601
N           37.09380048486238       12.30133012901210       88.69281601031786
N           38.61805553314013       13.11683564663606       86.44124159460630
N           36.24644811792369       14.01528717074639       85.17369258170410
C           33.70956855160881       13.66210784492127       86.65519053168779
C           32.45192841668290       13.55092614148837       87.36299892821563
C           32.74627367958333       13.02854199903850       88.58236903401331
C           34.17843665017648       12.82076242652663       88.59882660124656
C           36.22387963502851       12.04372077958359       89.70657153185776
C           36.90403337922465       11.44669823814910       90.82722785040907
C           38.22067533714539       11.34090420625231       90.46646481855076
C           38.31524784709872       11.90087567069844       89.13230195902278
C           39.63447196688053       12.57885302865355       87.17369695308173
C           40.88913710870667       12.71342042256203       86.48206101784305
C           40.61140182941804       13.35072499543636       85.30107959833292
C           39.18328822293518       13.58870888549563       85.29939272008187
C           37.12901161141804       14.35000582495175       84.19458641854918
C           36.43903825645165       14.91997691050731       83.05870534733079
C           35.11556861826858       14.90704071221286       83.37028136133429
C           35.01570450436221       14.33754875623437       84.69538179050645
C           33.82611589702775       14.17389848432165       85.37700613149916
H           32.92019634151637       14.48125762282927       84.87840926311407
C           34.86155149054770       12.28470593472878       89.67086852935617
H           34.28677206737108       12.02342206506916       90.54567589880111
C           39.49526751139340       11.99494402273319       88.42042939045479
H           40.38547111910658       11.59527961406058       88.88024323857324
C           38.49716574437616       14.16891647906004       84.24892171828789
H           39.07111934627794       14.47675529668774       83.38921204927335
C           31.83813432114649       12.70704627453329       89.71862602937814
H           31.88825340142448       11.64551629813385       89.96280443334688
H           30.80847777173467       12.95331021526906       89.47190091369522
H           32.12266645674334       13.27239577147754       90.60604612660387
C           31.13355623462876       13.95745212057323       86.80101158600407
H           30.92247788698767       13.40935746806301       85.88254903613792
H           31.12916235882350       15.02238686390610       86.56795587597237
H           30.33358191187234       13.75909520548541       87.50988975208190
C           36.26797177825135       11.09647719416525       92.12630092667889
H           35.76225716836584       10.13105614807101       92.06648799852965
H           35.53077715415802       11.84688875574598       92.40722614167242
H           37.02327699258500       11.04025096587128       92.90735866295535
C           39.33812876325539       10.82563287732446       91.22681263162801
H           40.28786238644979       11.32006508213379       91.05945584397014
C           39.28146118436055        9.81261815933120       92.08485724693290
H           38.37656433796398        9.25578323344653       92.25541451820871
H           40.15158814599083        9.48771383462667       92.63052958822666
C           42.21301433530166       12.29781199386610       87.02019313623785
H           42.38008106737396       11.23139121248387       86.86057906058969
H           42.27344533702493       12.49151577066599       88.09011176893317
H           43.00771634274581       12.84855222062566       86.52125284079430
C           41.51341588912385       13.75434082191790       84.24458571193492
H           41.25292154491556       14.67339292996822       83.73232379409657
C           42.60067801973953       13.09083253853230       83.86668880060506
H           42.87918984368272       12.14943102063366       84.30699831011297
H           43.23731314034813       13.45617073600761       83.07820162307847
C           37.11449609512363       15.39831352207831       81.82028017885490
H           37.65764727779370       14.58272140645955       81.34284221012267
H           37.82773909810601       16.18975655016766       82.05224591483669
H           36.38917293360182       15.78861224693595       81.11089980052913
C           33.95029886096270       15.37036384830615       82.56642378390774
H           33.25947557709247       14.54675111547080       82.38607338466623
H           34.27471123862222       15.76186663123884       81.60559915858596
H           33.40918982374673       16.15685776268112       83.09304657098454
O           37.02499247517393       15.18008446705521       87.74977389469272
H           36.79956180828022       15.72510375174710       86.98694759628755
H           37.98665934246931       15.17343576339243       87.81900246131340
C           35.24892531252471       10.02776181926404       86.86613517116972
H           35.35970657998720        8.97958628226643       86.60587252211786
H           34.26668985796150       10.38467229746614       86.57449644090352
H           35.39827730518878       10.19004925346573       87.92814006292286
S           36.46317844039535       11.01093792160936       85.91848532332092
H           37.53880072838884       10.44286823534011       86.47584475354927

--Link1--
%mem=16GB
%CPU=0-71
%gpucpu=0,1,2,3=0,1,2,3
%oldchk=1cpt_01_opt.chk
%chk=1cpt_01_nbo.chk
# apfd/def2TZVP int=(grid=ultrafine) geom=check guess=read pop=nbo scf=qc

1cpt_01_nbo

0 1
