%mem=16GB
%CPU=0-71
%gpucpu=0,1,2,3=0,1,2,3
%chk=1ccl_II_S.chk
# polar def2tzvp apfd int=(grid=ultrafine)

1ccl_II_S 

0 1
Fe          -6.13403559542090       56.99944532363435      111.66864580357220
N           -7.01194947697690       56.10104331957238      113.24412449370288
N           -7.10356459661557       58.70840048419396      112.19904981440784
N           -5.39278730779434       57.95264855937828      110.07858062266519
N           -5.26632821957603       55.31785436211727      111.13488364356090
C           -6.81696584247014       54.80237608678353      113.60365625890840
C           -7.37045065596535       54.54556477025569      114.91325743324091
C           -7.85720328184359       55.73494168259929      115.36280178470136
C           -7.62756178730115       56.69069644226486      114.30466878844300
C           -7.78698396667968       58.94270974081722      113.35374456268342
C           -8.30709456688936       60.28572080884611      113.38195047820557
C           -7.89560719903924       60.88116587380561      112.21949274914756
C           -7.09873640187658       59.88720669662841      111.52401091225258
C           -5.53656617467352       59.26113775142283      109.74293631201282
C           -4.67121115798830       59.60939971191200      108.64518293016160
C           -3.97237611061870       58.47312404444791      108.33151472133687
C           -4.45030459466489       57.44917847474257      109.24033063418615
C           -4.49464251225915       55.12528929281419      110.03482053724393
C           -4.17922093480719       53.72138691679753      109.87547983579216
C           -4.76532666728300       53.07775313893280      110.91997152380559
C           -5.44883602150462       54.09367962755571      111.69283539636240
C           -6.17822621790831       53.84017328952245      112.83804560816954
H           -6.19072560469553       52.82544828783066      113.20647133920163
C           -8.01667612399738       58.01503155316833      114.35565982586184
H           -8.54171430748742       58.34758975781176      115.23799152527266
C           -6.40398008720850       60.14573906436355      110.35956381848257
H           -6.48636757592356       61.13525646799996      109.93690947051653
C           -4.04556123651130       56.12545593114955      109.19183835808290
H           -3.36363255721158       55.84119567351700      108.40436761197756
C           -8.51590924789669       56.05880957865053      116.66029549051379
H           -8.55096743081672       55.18428439422954      117.30532042379851
H           -9.53695290165575       56.40550257609414      116.49746542128521
H           -7.97194308125897       56.84730570851722      117.18108767839021
C           -7.34363886249103       53.22045372370754      115.59518028162002
H           -6.31679175946117       52.88529380006357      115.74411050242736
H           -7.85885138720066       52.47074369017461      114.99443496537586
H           -7.83048386405218       53.27442273389949      116.56594091136236
C           -9.07009845058629       60.88741329144105      114.51059661104458
H           -8.66919385832416       60.55525450318512      115.46728642621595
H          -10.12246623603336       60.60100643247815      114.46894417533466
H           -9.00787996709511       61.97278303982808      114.46581337614083
C           -8.13818713097736       62.22754477863830      111.75204138654884
H           -7.33790485216856       62.67858852053580      111.17716611125368
C           -9.24870927708974       62.92721890755713      111.96239308737692
H          -10.09553864433546       62.51568967004296      112.48350029412438
H           -9.35891639712833       63.93369703342231      111.59396785006997
C           -4.53035268071120       60.97343717978494      108.06462400029449
H           -4.60917770667787       61.73301204943105      108.84082730331407
H           -5.31053404210480       61.16385523617704      107.32556389812092
H           -3.56307854428197       61.07379952125700      107.57626201587100
C           -2.94890107894459       58.27100245058806      107.33015418437992
H           -2.17990464854895       57.55179335107940      107.58838229335566
C           -2.89036120051208       58.87903103853660      106.14950547892782
H           -3.65063151791241       59.56532605121122      105.81985223249700
H           -2.08707282569989       58.68855697610869      105.45698843603958
C           -3.35347620451238       53.16754610651984      108.76520394538942
H           -2.34176999458739       53.57298373089206      108.80066245503481
H           -3.78659181785788       53.42755335515721      107.79918710658757
H           -3.28973533340071       52.08422856984134      108.83244468641503
C           -4.76476586203519       51.62580232097958      111.25618301482540
H           -4.19519123733747       51.05858681694561      110.52408366252752
H           -5.78291153180274       51.23641517235390      111.27725479104942
H           -4.32024345553568       51.46100817475277      112.23807261390704
O           -4.42000000000188       57.51600000000107      113.05700000000132
H           -4.69800000000039       57.12899999999968      113.88699999999987
H           -3.67499999999864       57.98100000000358      112.91599999999895
C           -9.60670554809032       55.26239382693339      107.63581213380782
H          -10.26797167271856       55.99901150962030      107.17968649638750
H          -10.18150699426579       54.35409653322360      107.81674897492292
H           -8.80628083568432       55.03462467927406      106.93898217021960
N           -9.80806279402399       56.15941373822707      109.96520103542886
H          -10.81382183041331       56.12776662894248      109.99910413206223
C           -9.03048150316421       55.78299291032325      108.90143084389861
C           -8.98149424372316       56.58065985203127      110.94791051536639
H           -9.31391112884343       56.93661420650019      111.90077847823599
N           -7.72919456827102       56.49360743455963      110.57218917247728
C           -7.74290875981956       55.99976700677301      109.30142624277838
H           -6.83314953853315       55.83458230557798      108.76235151098035


--Link1--
%mem=16GB
%CPU=0-71
%gpucpu=0,1,2,3=0,1,2,3
%oldchk=1ccl_II_S.chk
%chk=1ccl_II_Sn.chk
# apfd/def2TZVP int=(grid=ultrafine) geom=check guess=read pop=nbo scf=qc

1ccl_II_S_nbo

0 1


