%mem=16GB
%CPU=0-71
%gpucpu=0,1,2,3=0,1,2,3
%chk=1cot_II_S.chk
# polar def2tzvp apfd int=(grid=ultrafine)

1cot_II_S 

0 1
Fe           8.96262105731399       12.48631153090973       33.47463420586792
N           10.54493517609062       13.22478044115378       32.53759226117159
N            8.15698875158595       14.27665366683048       33.70218450294883
N            7.38042723126243       11.63161005676517       34.40262271655908
N            9.75465223086572       10.61088661321654       33.27071504669122
C           11.60612193757180       12.56213868330950       32.01541541455754
C           12.53621351447888       13.48705570906707       31.40381685912144
C           12.00097684197047       14.72610866243950       31.56143450657250
C           10.75242486361341       14.54063221634087       32.27057018739436
C            8.69841496839732       15.44916502325090       33.27804909488788
C            7.80807979374545       16.54648729192245       33.57078904918149
C            6.72081660585834       16.00751183030726       34.19090351893887
C            6.95095097684830       14.58248625427831       34.24767614824741
C            6.27042876003728       12.29098071564329       34.82896900011880
C            5.31973834473802       11.36712451274132       35.41685028760831
C            5.88357756085871       10.12452321008189       35.30628170203056
C            7.15828943111699       10.31536929123818       34.66337329284867
C            9.22169728316299        9.43137793453512       33.68048015480631
C           10.06193456584285        8.31800015026845       33.28476902718403
C           11.12023374646537        8.86863687458434       32.61244034532714
C           10.89850645081555       10.29201013280981       32.60527013735294
C           11.78809210791992       11.19597319996847       32.05060294040404
H           12.67942236821247       10.79955543950608       31.58954759309619
C            9.90777115573914       15.57942375739187       32.61669245378916
H           10.20945129707604       16.57609057809097       32.33134865551634
C            6.07073276732841       13.65884326043395       34.77988293177273
H            5.14548117248353       14.03080677064276       35.19329565202934
C            8.02512818917937        9.28269347793900       34.35360024820312
H            7.73361831936785        8.28510991390194       34.64432402219909
C           13.81321365471393       13.08409774494711       30.75010374994815
H           13.62206194831853       12.40357962069702       29.91975841619027
H           14.46186562630378       12.57422392660144       31.46250321406088
H           14.34260079290097       13.95261222169040       30.36602044348353
C           12.53571898729641       16.04792089004271       31.12718557080525
H           12.69778799008419       16.69515750420394       31.98946514203831
H           11.83536062517090       16.54704390369978       30.45639924521963
H           13.48243667928443       15.92934103114244       30.60596564882557
C           12.24414696350983        8.17093526333717       31.92912714360785
H           13.14301061225868        8.18053485967625       32.54807303266855
H           12.48118768234088        8.65580514608840       30.98335674582075
H           11.97513641079437        7.13500599995960       31.73215992681160
C            9.77498794743800        6.92724578911034       33.55754927559172
H            8.72467675417967        6.65858792609715       33.56527095751686
C           10.68023751748388        5.98409739512532       33.79650183103445
H           11.73326183079672        6.19982162273217       33.84835955650519
H           10.39403967388106        4.96081179211382       33.97518578348235
C            5.29950539069343        8.80764222312648       35.68302218922982
H            5.71395773805868        8.45163587308178       36.62821720275841
H            5.51046854375604        8.05878056673773       34.92053922780637
H            4.22056702761331        8.89722991790036       35.79319585445239
C            4.03122741314043       11.73802780250077       35.96041303414987
H            3.52675787724102       12.55471090670964       35.45612206156292
C            3.44486076734764       11.16654629826304       37.00670369776230
H            3.91986064030450       10.38411068413001       37.57281173410023
H            2.47428867276879       11.48252448719192       37.35165084551564
C            5.52547602251817       16.74498959921445       34.69144414834368
H            5.81745110652054       17.46797124956875       35.45460560341789
H            4.79336270910643       16.07070677990079       35.12572957123685
H            5.04857806629468       17.29314154846051       33.87834792626624
C            8.05498624021719       17.98440513540362       33.26607434342008
H            7.48940864955036       18.61564649364740       33.94943311959197
H            7.74165891333681       18.22417617900747       32.24740495256476
H            9.11109302876744       18.22939694186733       33.36202630474904
C            6.08589176953488       10.64440007265481       29.06573644871301
H            6.61783694351796       10.52463660555746       28.12205764387065
H            5.12287202458310       11.11064130997397       28.85727835126803
H            5.91163455041949        9.66252094518866       29.49411785165232
N            7.25782288000986       12.75367532852921       29.73350731614672
H            7.05314478353724       13.25566676247446       28.88519802807770
C            6.87551781532623       11.46828043598480       30.01542745749381
C            7.95369437521443       13.21691042874489       30.79594972731478
H            8.37691595358303       14.19831437923736       30.85523071042690
N            8.03497841690361       12.30363046016909       31.73241054640668
C            7.36886312335452       11.21068671768129       31.26226242329775
H            7.29068522414407       10.31907388973614       31.84862605674368
C            9.21398558222751       14.96472783362343       36.93378203544900
H           10.23315798719182       15.20949215626534       37.22334704072998
H            8.52950315951751       15.36551393743615       37.67890618524096
H            9.00406021723080       15.43839013047211       35.97968984533992
C            9.04107149943949       13.46188498684075       36.82774247456985
H            8.02332418573909       13.20153240157818       36.54300642326140
H            9.29715633229635       12.97771549268565       37.76983755596811
S           10.18026605160181       12.77729077504156       35.55489907618087
C           10.39757933817837       11.12030067047597       36.27309149242240
H           11.05195716134000       10.57094081518648       35.60526736300790
H            9.43765037961547       10.61882942298272       36.34100038579701
H           10.86046227170105       11.21613151803921       37.25176810352593


--Link1--
%mem=16GB
%CPU=0-71
%gpucpu=0,1,2,3=0,1,2,3
%oldchk=1cot_II_S.chk
%chk=1cot_II_Sn.chk
# apfd/def2TZVP int=(grid=ultrafine) geom=check guess=read pop=nbo scf=qc

1cot_II_S_nbo

0 1


