%nprocs=12
%mem=16GB
%chk=1a6k_II_S.chk
# polar def2tzvp empiricaldispersion=gd3bj apfd int=(grid=ultrafine)

1a6k_II_S 

0 1
78
 xtb: 6.6.1 (8d0f1dd)
Fe          14.52296446690720       28.12904960009716        4.61622152896986
N           14.84600272679939       29.36201502071479        6.16306113463393
N           13.71517370866954       26.78301733017475        5.89311830463971
N           14.31615202725589       26.79196123554742        3.12498533538919
N           15.45395549646314       29.38852512814461        3.39720991885887
C           15.35623116141705       30.62079156112769        6.08760040365694
C           15.26252034828016       31.29086621134548        7.36589861494800
C           14.67463264605225       30.40725743961361        8.21614839066884
C           14.39430270779068       29.22118958641974        7.43725610845880
C           13.43317233211386       26.97762774921361        7.20969771669697
C           12.74392247048070       25.84024773326280        7.76496951477658
C           12.59732409129527       24.94320224336524        6.74149164060798
C           13.19039357726498       25.57041273838491        5.57520801919520
C           13.84549883469907       25.51672912999718        3.21114068449051
C           14.03928486687109       24.80928092985272        1.97318798455775
C           14.67450500346010       25.68227513690573        1.12852617376860
C           14.85249502355967       26.90849457104351        1.88119912115343
C           15.71864456206977       29.19755100464226        2.07843867504482
C           16.44339628398425       30.32624846237831        1.53469161847234
C           16.58390157716292       31.21585505818230        2.55328146842697
C           15.94900761611242       30.61543862867827        3.70656261518510
C           15.91016191030007       31.19933254272629        4.95874699322798
H           16.32322319254489       32.19182042084037        5.05948761600564
C           13.76457480916866       28.10267375677197        7.94353789363525
H           13.48537993952467       28.11907247713852        8.98593888210960
C           13.27550983818972       24.95530982095528        4.34135477433477
H           12.89450851260579       23.94883566174017        4.25831044973268
C           15.44237922746152       28.04802352912060        1.36388830161313
H           15.77129939379010       28.01591074586638        0.33643619515920
C           14.33103567933817       30.56857565193395        9.65745340412836
H           14.65192872867589       31.53996166746459       10.02592305136882
H           14.81700580866882       29.79744730309473       10.25533547850313
H           13.25428952665211       30.48337509148139        9.80744138896509
C           15.74698330487421       32.67603422504050        7.62903592464742
H           15.22593078172493       33.39327376190507        6.99392748705206
H           16.81425333190049       32.75555073733729        7.42147871396919
H           15.57904622618672       32.95386635740643        8.66664206656690
C           12.24639585737208       25.73574180954102        9.16441338520348
H           11.85608989205878       26.69283017723491        9.50736131412374
H           13.04812129080531       25.43617592375768        9.84145478436619
H           11.45207364914546       24.99434112929909        9.22361641034130
C           11.95880401467976       23.64559144022579        6.74622681160798
H           11.44828833465191       23.37012837607681        5.83031276436821
C           11.96150781085686       22.78917519943959        7.76273990579334
H           12.49096452091419       22.98869414699243        8.67796640380848
H           11.45172181123161       21.84175544554174        7.70326011814012
C           13.56664198832292       23.42534093724976        1.69311093676401
H           12.59715567023869       23.24771812655111        2.15641066554182
H           14.26687444461114       22.68578782139155        2.08552328598840
H           13.47241801214192       23.27352342927781        0.61979718680163
C           15.10419055330357       25.48090924118290       -0.23768173569855
H           15.05971393577102       26.35550824405686       -0.87630903705128
C           15.54548179753552       24.33547165498715       -0.74734479716313
H           15.65797037200827       23.44751920073137       -0.15008510436071
H           15.83770406693550       24.25424141223266       -1.78120147924816
C           16.90986130754730       30.42500944228737        0.12271414480838
H           16.06964718974243       30.33136299114280       -0.56554455523344
H           17.62094029600794       29.62960175110138       -0.10251912014944
H           17.39716467254149       31.37995683168244       -0.05863887422825
C           17.25278045962135       32.54804332468518        2.56006986713199
H           16.55314919288920       33.32831632014562        2.86124936197644
H           17.63497052293805       32.79410543631143        1.57243541280874
H           18.08719696776391       32.55449855731346        3.26181102766772
O           16.52500000000266       27.10599999999445        4.96200000000294
H           16.54400000000082       26.33699999999787        4.39199999999369
H           17.18699999999763       27.39099999999742        5.48199999999760
C            9.16810447675024       28.99979009976812        3.37684786315184
H            8.92841397588835       29.52572165659151        2.45274463754194
H            8.52119666422596       29.38427983592467        4.16563624425692
H            8.95930707602836       27.94322048855024        3.24082198821545
N           11.16074221702868       30.41831561153623        3.91429078170329
H           10.68245323291203       31.30022107942614        3.83052085949143
C           10.59853576522641       29.18197848165756        3.73119174417907
C           12.46499108508885       30.23381901005050        4.22302883951972
H           13.15456984272618       31.02904876040540        4.41934613596740
N           12.76143448747060       28.95664437164833        4.24759347217990
C           11.61023665247923       28.29006611063236        3.94350124709216
H           11.58906462967974       27.22104612920139        3.89804074367295



--Link1--
%nprocs=12
%mem=16GB
%chk=1a6k_II_S.chk
# apfd/def2TZVP empiricaldispersion=GD3BJ int=(grid=ultrafine) geom=check guess=read pop=nbo scf=qc

1a6k_II_S_nbo

0 1

--Link2--
%nprocs=12
%mem=16GB
%chk=1a6k_II_S.chk
# apfd/def2TZVP empiricaldispersion=GD3BJ int=(grid=ultrafine) geom=check guess=read scrf=(smd,solvent=Chloroform) 

1a6k_II_S_solv 

0 1 


