%mem=16GB
%CPU=0-71
%gpucpu=0,1,2,3=0,1,2,3
%chk=1ch5_II_S.chk
# polar def2tzvp apfd int=(grid=ultrafine)

1ch5_II_S 

0 1
Fe          35.13975095994115        4.20560066342023       10.30357201271641
N           37.05886508503142        3.92685848337284        9.79829170434274
N           34.91721089760528        5.47717013519476        8.77158042658912
N           33.22423844366595        4.52800528190760       10.84574995955429
N           35.38335894488301        2.97468258860186       11.86253668573326
C           37.93242377077421        3.05328680403340       10.36315822203018
C           39.18766825996050        3.04637361355585        9.64479594052134
C           39.03656101586862        3.90895209313247        8.60431178617678
C           37.69703510534838        4.44366199295659        8.71374133275433
C           35.87142934267905        5.85675248397001        7.87870870681956
C           35.35659585937212        6.83987702848886        6.95968466398531
C           34.07102038767945        7.09705702103626        7.35413013157889
C           33.82652650772290        6.24093641772625        8.50005998388106
C           32.40368441362278        5.50150308291759       10.35915253350654
C           31.24270593134457        5.66843148730848       11.19061181838062
C           31.40187743835251        4.80792095137204       12.24610230539850
C           32.65163553578424        4.11471254297586       12.00827251990723
C           34.44002476962832        2.62231847131550       12.77542527053274
C           34.96986000531421        1.65718948144036       13.71522655816285
C           36.26556647450509        1.45336847873735       13.35983968222269
C           36.49738811875204        2.26862058229631       12.18649667463469
C           37.68878625686485        2.28822229665549       11.48925423679473
H           38.48793583660174        1.65657966964627       11.84591667780611
C           37.16296207008904        5.35995040020054        7.82869596468524
H           37.80728106189760        5.72323065594796        7.04229540237769
C           32.64140523688437        6.23515533068389        9.20804759614001
H           31.87886760039213        6.93551309536285        8.90255882386481
C           33.16647407751328        3.15016749318900       12.85724083711668
H           32.55624660294702        2.84080575612764       13.69215731076906
C           40.00994201651216        4.28643657597178        7.54007404146223
H           40.95124937769538        3.75860669856376        7.67210876255025
H           40.21125133239178        5.35764766125139        7.56685300091059
H           39.61596396631982        4.04211319738273        6.55299015101609
C           40.36763126854369        2.21666710238026       10.02002141452385
H           40.11242497738708        1.15678777533138       10.00406450000611
H           40.70689004950574        2.46675607381318       11.02546668789054
H           41.19213473899034        2.38106481097679        9.33047827922858
C           36.09904697703517        7.40144924958299        5.79731359161316
H           36.71312570259097        6.63631235086289        5.32422340766088
H           36.75639992625987        8.21439324639754        6.11017871335069
H           35.39888219039084        7.79072947170789        5.06085485612990
C           33.09952445479510        7.99919719139409        6.77614339277898
H           32.06708799497775        7.67357968338078        6.83235965335965
C           33.37487859918415        9.16771861172529        6.20565703190378
H           34.37443086751802        9.56388554925917        6.16428970684524
H           32.59962556284508        9.78460281269533        5.78201530923615
C           30.10360219320799        6.58348518579436       10.90430958887796
H           29.88128024999146        6.59932919169961        9.83849533306010
H           30.33312996107734        7.60433814605749       11.21515302633686
H           29.21626705213658        6.25283635994925       11.44035634478927
C           30.53564474327884        4.58564057546893       13.38232568716878
H           30.51523725792092        3.57230820369922       13.76672517330462
C           29.79316786691876        5.51255953923682       13.97932528281841
H           29.80862101412063        6.54429625837186       13.67408748795248
H           29.15887534549143        5.27312757987808       14.81671196905044
C           34.19374799109453        1.06752921412453       14.84276712785991
H           33.30044189018941        0.56495412038257       14.47147527100055
H           33.87881720563660        1.84438332625122       15.54039519242542
H           34.79319270266286        0.34202953312623       15.38726557325911
C           37.29036903998840        0.57160960745921       13.98707576100095
H           37.61442345688135       -0.19891516850750       13.28679028349437
H           36.89120294132807        0.08343151628002       14.87283211665034
H           38.16582131085885        1.15123820662341       14.28009672409137
O           35.65300000001417        5.96600000001346       11.62100000002116
H           34.84300000000833        6.38899999998010       11.90499999999339
H           36.47700000001172        6.18899999999828       11.86899999997847
C           32.70453766342880       -0.35053283534270        8.21809400099851
H           33.32117662532738       -1.22750168163127        8.02134534596841
H           32.02267674316960       -0.21797754425854        7.37816730178981
H           32.12046488882936       -0.52988223700469        9.11519587305948
N           34.38927679431729        1.32815517115658        7.43391466898516
H           34.51892283087181        0.92266865416823        6.52157682086734
C           33.54808845273611        0.85668991390941        8.40773812858919
C           35.00231327319119        2.43095410805768        7.92078261364131
H           35.71707026569678        3.01135046134300        7.37444050885166
N           34.60139642340049        2.68499600008855        9.14272287598566
C           33.69680974009387        1.71450915271418        9.45950955853916
H           33.21725530582295        1.70074194861867       10.41597317815975


--Link1--
%mem=16GB
%CPU=0-71
%gpucpu=0,1,2,3=0,1,2,3
%oldchk=1ch5_II_S.chk
%chk=1ch5_II_Sn.chk
# apfd/def2TZVP int=(grid=ultrafine) geom=check guess=read pop=nbo scf=qc

1ch5_II_S_nbo

0 1


