%mem=16GB
%CPU=0-71
%gpucpu=0,1,2,3=0,1,2,3
%chk=1bz6_II_S.chk
# polar def2tzvp apfd int=(grid=ultrafine)

1bz6_II_S 

0 1
Fe          -0.53328291541903        9.47823345472164       15.44078243124471
N           -1.90354644537348       10.75063945219876       16.14275691153289
N           -1.98796626747863        8.13816983140064       15.05634377749141
N            0.83774202864390        8.13955659853697       14.81233154150750
N            0.91925839360245       10.74948607691583       15.93069702546969
C           -1.67484324494446       12.00009593502431       16.62492224510799
C           -2.92143471498771       12.67043041480247       16.92328271199861
C           -3.91071877284857       11.78502765139896       16.62900288760281
C           -3.25379996875625       10.59116066458682       16.14317013219108
C           -3.32716404584474        8.31860869224253       15.22016829415312
C           -4.06266290093655        7.16508535688120       14.76803202150091
C           -3.12983977092389        6.26060596129304       14.33588932058637
C           -1.83976639716263        6.89636172598327       14.52673449306407
C            0.61047476617553        6.86093694823373       14.40240467285272
C            1.84885880760610        6.15274861364422       14.21108342970681
C            2.84788895714025        7.02762469883768       14.55026490453138
C            2.18714453246074        8.26526914193577       14.91379275585592
C            2.25745902327013       10.55199507217963       15.80386708396611
C            2.99453190403737       11.67948351967721       16.33420049961283
C            2.06504035073142       12.56533401678102       16.77986876151613
C            0.77393700756562       11.96757171525739       16.51408212732195
C           -0.43009039950992       12.56713206167059       16.82817626541985
H           -0.39755019658966       13.55451392264046       17.26307453305904
C           -3.92604111061341        9.45665851061555       15.73371271931149
H           -5.00260182663547        9.46146666059037       15.81378351265874
C           -0.63745883749704        6.29074631415721       14.22137091911659
H           -0.66930156795380        5.27449950777529       13.85942007357309
C            2.85843402982913        9.39965224136507       15.33487953615662
H            3.93726593957235        9.36674926839927       15.34144401011722
C           -5.38814995359696       11.94320358295500       16.75023974548314
H           -5.64098355497018       12.92547202671374       17.14182178584000
H           -5.80018183533907       11.19025950366901       17.42245891787656
H           -5.86977701703833       11.82738969578848       15.77862061986330
C           -3.02381866954539       14.05819549065187       17.45720070428244
H           -2.54359445641920       14.76511342190884       16.78045173378298
H           -2.53214908145513       14.13294491579543       18.42753357979633
H           -4.06386589476171       14.35146550642669       17.57797502077017
C           -5.54716565202739        7.05019248870232       14.73492398149815
H           -6.00386199624268        8.00159223719896       14.46520739017982
H           -5.93688879867161        6.75474566125634       15.71058584334760
H           -5.84680573594943        6.30092405865721       14.00491264338554
C           -3.32419600073503        4.94517181348044       13.76738076348930
H           -2.60163784081014        4.64969554770365       13.01521337117794
C           -4.29188518402635        4.09543875694064       14.09670629707940
H           -5.00896074326162        4.31387690105424       14.86859238782207
H           -4.38354450963041        3.13401956435060       13.61884392965682
C            1.97013815419346        4.76003719349937       13.69887293626483
H            1.24620148357500        4.57852785469469       12.90585883988006
H            1.78880277205630        4.03355847112662       14.49287690529240
H            2.96973643225376        4.59374920232568       13.30258837358167
C            4.28026659362199        6.82715625670854       14.54352119531936
H            4.87441771406326        7.69488754270857       14.28056690127471
C            4.90061102370572        5.68972804303548       14.83985174471518
H            4.36527606827846        4.81036948119639       15.15312209077173
H            5.97411819516127        5.60608541280048       14.80202503027321
C            4.48169254711503       11.77530449048265       16.35800584998998
H            4.88858718093704       11.68106187570376       15.35099464232829
H            4.90747798357407       10.97945799969580       16.97002689836303
H            4.80160903868333       12.72987192766784       16.76858930015206
C            2.25949897072714       13.89366167983784       17.42718027807506
H            1.77060351196143       14.67731945595541       16.84817854186006
H            3.31664795280675       14.13490215157208       17.50603687165293
H            1.83118307351802       13.89767336688512       18.42975173616304
O           -0.28599999998875        8.50500000000344       17.47699999999327
H            0.26099999999372        7.73000000000698       17.34800000000643
H           -0.61000000000324        8.79700000000094       18.25199999999576
C            0.51514133130727       11.41912352400149       10.33053929964101
H            0.30391497470454       12.46811866448043       10.12515030439238
H            0.17075734936623       10.83005468396930        9.48082769419379
H            1.58835338144619       11.29342484969018       10.42911851928228
N           -1.51744013655938       10.98342677051412       11.72513453370922
H           -2.18101008584682       11.26843647511222       11.02383883304995
C           -0.15469527016279       10.98070608156551       11.58119621159446
C           -1.79939440116579       10.52950180534624       12.96756122842174
H           -2.79022446022529       10.42335862472833       13.35875922739051
N           -0.69852684140670       10.24043189917598       13.61829267600244
C            0.33284426164189       10.51700847937119       12.76929841337380
H            1.34822200542357       10.36363721812029       13.06994444579955


--Link1--
%mem=16GB
%CPU=0-71
%gpucpu=0,1,2,3=0,1,2,3
%oldchk=1bz6_II_S.chk
%chk=1bz6_II_Sn.chk
# apfd/def2TZVP int=(grid=ultrafine) geom=check guess=read pop=nbo scf=qc

1bz6_II_S_nbo

0 1


