%nprocs=12
%mem=16GB
%chk=1ac4_II_S.chk
# polar def2tzvp empiricaldispersion=gd3bj apfd int=(grid=ultrafine)

1ac4_II_S 

0 1
78
 xtb: 6.6.1 (8d0f1dd)
Fe          -6.12672397386648       57.14605209732046      111.83979530060138
N           -6.93597845037482       56.22579782932281      113.42473645777855
N           -7.07192486531900       58.84557484556677      112.36465158188346
N           -5.27991858325594       58.11133343304668      110.30479782090303
N           -5.12693106208230       55.48378155469215      111.36933377855293
C           -6.73440982035213       54.93125954159250      113.79110013191855
C           -7.32216444445493       54.66929636320558      115.08468755837950
C           -7.87532910337073       55.84215123822025      115.49902270864629
C           -7.61366250005363       56.80539705736035      114.45399124177568
C           -7.76486951440693       59.06893768906171      113.51635035117413
C           -8.27780351456333       60.41421539121098      113.55534786837289
C           -7.83931434581604       61.02553632436195      112.41046090002827
C           -7.02836479671109       60.03983859063984      111.71997303748697
C           -5.44940567326152       59.41399272822436      109.95230031722096
C           -4.64481450642925       59.74589531659538      108.80345868849575
C           -3.95940228325169       58.60723588071959      108.47339164194497
C           -4.38114280538205       57.59835625077682      109.42691520281052
C           -4.36914415929067       55.29117132950299      110.25887205542490
C           -4.09355160493972       53.88433670977135      110.06139455080611
C           -4.72734446483823       53.22788163918872      111.06935123321969
C           -5.35815498889603       54.24517875374941      111.88124244028066
C           -6.07230126518146       53.97990794807469      113.03416112329349
H           -6.09344768678988       52.95983653499904      113.38690683192495
C           -8.00232432801524       58.12962379949550      114.50648072006973
H           -8.54927992344832       58.45127501555371      115.37963440126052
C           -6.29113789785599       60.31028556021443      110.58493056899094
H           -6.35488849930769       61.30519030762277      110.17206361324369
C           -3.95386534521940       56.28348108855560      109.39028681039090
H           -3.29558456768378       55.99456276260592      108.58479808446253
C           -8.60083934025738       56.15012937712204      116.76432372387616
H           -8.08246111475400       56.92821201223884      117.32563835898929
H           -8.67404151302966       55.26633010143041      117.39329154911113
H           -9.61001416465777       56.50401122779457      116.55187575228663
C           -7.28281868139040       53.34853133592680      115.77416151427991
H           -6.25234533365104       53.02934152927210      115.93176923432014
H           -7.78277629908679       52.58769580651327      115.17417069925666
H           -7.77693223480628       53.40103635645212      116.74128923742468
C           -9.06528223457251       61.00228073429723      114.67425473772757
H           -8.69584233456497       60.64648444632412      115.63498199380064
H          -10.11923783199795       60.72927534959526      114.59680753745143
H           -8.98977385356472       62.08756681423709      114.65318914835923
C           -8.06303154102752       62.37984469763536      111.95788995348197
H           -7.25004595429078       62.83108741186140      111.40133027376396
C           -9.17115570186151       63.08649355693440      112.15818706572000
H          -10.03010449938500       62.67660770013692      112.66026760188166
H           -9.26634089982883       64.09813640617692      111.79988003955371
C           -4.54283439643735       61.09862070206462      108.18956108729185
H           -4.56003690312993       61.87260175970268      108.95545807629001
H           -5.37590043411625       61.27981121072895      107.50823898680521
H           -3.61460942832666       61.18533239663468      107.62841630099652
C           -2.99251526289290       58.39128563238513      107.41985262235337
H           -2.19867284039543       57.69034102973822      107.65156144294851
C           -3.01173358656215       58.96829665734708      106.22253115951153
H           -3.80056499126307       59.63467071639288      105.91996787651919
H           -2.24680219764401       58.77094677806014      105.48969256513909
C           -3.28348057789268       53.33551221424504      108.93716532366396
H           -2.27563654101355       53.75078320510803      108.95410612623937
H           -3.73577744218208       53.58770197988908      107.97750902959854
H           -3.20804283964585       52.25305847218679      109.00664604120226
C           -4.79487145484197       51.76589418863413      111.35074037342284
H           -4.33196870973782       51.53836012754952      112.31158962312587
H           -4.27826497718201       51.19882558652616      110.58022083867617
H           -5.83156120598342       51.43100455773423      111.38792564496529
O           -4.44500000000778       57.66699999998714      113.27900000001011
H           -4.69099999999455       57.12299999999948      114.02699999999459
H           -3.79300000000908       58.27100000000279      113.26000000000339
C           -9.43045564004277       55.22311540547653      107.77072901899062
H           -8.60618971585422       55.00315425036091      107.09966496818117
H          -10.10335469147604       55.92557374877607      107.27910706126728
H           -9.98033556734281       54.30179655529628      107.96270221991840
N           -9.71596300068970       56.16713154565858      110.07275817251836
H          -10.72026505707622       56.09783517175489      110.08703554283167
C           -8.90216538887719       55.79512486724079      109.03499498521251
C           -8.92657992554312       56.64200246104429      111.06237751563017
H           -9.29080764030256       57.00768945596898      111.99994454480598
N           -7.66342547891822       56.59267034555762      110.71470193886030
C           -7.63215381840537       56.06925846988420      109.45559012077285
H           -6.70489577306806       55.92580912796794      108.94025863104524



--Link1--
%nprocs=12
%mem=16GB
%chk=1ac4_II_S.chk
# apfd/def2TZVP empiricaldispersion=GD3BJ int=(grid=ultrafine) geom=check guess=read pop=nbo scf=qc

1ac4_II_S_nbo

0 1

--Link2--
%nprocs=12
%mem=16GB
%chk=1ac4_II_S.chk
# apfd/def2TZVP empiricaldispersion=GD3BJ int=(grid=ultrafine) geom=check guess=read scrf=(smd,solvent=Chloroform) 

1ac4_II_S_solv 

0 1 


