%mem=16GB
%CPU=0-71
%gpucpu=0,1,2,3=0,1,2,3
%chk=1ccb_II_S.chk
# polar def2tzvp apfd int=(grid=ultrafine)

1ccb_II_S 

0 1
Fe          -5.65660765894705       57.50585929345905      111.61973516729971
N           -6.69986000072675       56.44416632546880      112.94472766818046
N           -6.62503093518822       59.15393502105188      112.17400856589991
N           -4.44453719040677       58.61987894567658      110.46717486735241
N           -4.64606697583658       55.88432585418646      111.11160070495032
C           -6.61612834191332       55.10496482401749      113.16914180263338
C           -7.51644465570665       54.70508035483776      114.22676071691042
C           -8.17059499319777       55.83157205016652      114.61849020408165
C           -7.64164692092173       56.90841446851402      113.81278499733691
C           -7.60785850320111       59.25464511662879      113.11257069933320
C           -8.18366564305450       60.57601912576347      113.11917434073973
C           -7.46692153085977       61.31015520033136      112.21430602504084
C           -6.48752743817154       60.40145619135573      111.64947584726291
C           -4.56128050924547       59.95083713368749      110.20788821496814
C           -3.51491947882454       60.39957018692914      109.33048624060879
C           -2.72420312445062       59.30464388937226      109.08117824485093
C           -3.37336178709957       58.19236360840466      109.75093763816552
C           -3.62891234252897       55.80132166897892      110.21250879487660
C           -3.32106726088009       54.41877264030685      109.91477853561358
C           -4.11385666353844       53.66862922922196      110.72489748587815
C           -4.91587309685174       54.60298625632860      111.48397194917672
C           -5.80873427580008       54.22932629698574      112.46877063578067
H           -5.88022654044983       53.18026695949190      112.71041062685144
C           -8.06352673663930       58.21851639917596      113.90749573478335
H           -8.82962915722325       58.44362664427891      114.63290590679850
C           -5.53197220622564       60.78493469354518      110.73405790995608
H           -5.51680598885070       61.82201793844949      110.43611522748877
C           -2.98681368853682       56.87204641846291      109.62411313202109
H           -2.14475619584635       56.64754935578723      108.98821898016915
C           -9.21139156316057       56.00466951578598      115.67054092868970
H           -9.42935081929502       55.05811432617964      116.15859190991564
H          -10.13534457069427       56.38633990824474      115.23594054196539
H           -8.87623205846155       56.71342149193020      116.42810292319578
C           -7.65629759270748       53.30877983601691      114.72698236373041
H           -6.69593814753250       52.93233903430269      115.07936073418624
H           -8.00732755922310       52.64944386013006      113.93298044513521
H           -8.36589419218012       53.26207593473418      115.54914943401766
C           -9.35585389318382       60.99357590193808      113.93574298882427
H           -9.05512105279589       61.22992229696941      114.95784294465692
H          -10.09715479856026       60.19709309860296      113.97698675507949
H           -9.81792029052832       61.87732700277584      113.50029500609010
C           -7.62960005472491       62.69382922295944      111.82228069994207
H           -7.42722098931837       62.91225719291029      110.77980554090726
C           -7.99177584208227       63.68191567391140      112.63351186304305
H           -8.15784841701483       63.52334763931761      113.68485154038157
H           -8.10898830186889       64.69199980634015      112.27742663778976
C           -3.41089499055931       61.77751031981828      108.77350534270018
H           -2.90655808090836       62.45533504578228      109.46539985485404
H           -4.40263595486629       62.18172244676386      108.57763730966734
H           -2.85770210940188       61.76319946757904      107.83707103241532
C           -1.53662950548139       59.19402820926919      108.27159249692346
H           -1.32074292638190       58.20145081712605      107.89639516261070
C           -0.68952378899766       60.17311529960718      107.96159656676195
H           -0.80498422186432       61.18124421576101      108.31896400802844
H            0.16892293133034       59.98967363137676      107.33666268001483
C           -2.29673833361294       53.98120344770726      108.92526403882806
H           -1.30443114323122       54.31905552705501      109.22598015810347
H           -2.51332808979315       54.39789503156089      107.94173746589341
H           -2.27781283369301       52.89738186881098      108.84210320009367
C           -4.20560785170941       52.18722899123026      110.85217116108097
H           -3.53145720691715       51.69701220012257      110.15439008184185
H           -5.22065895630104       51.84683589813124      110.64785493069375
H           -3.94060197751505       51.87336129826049      111.86210696184843
C            0.96848835672088       59.96129137539585      110.96050392130874
H            1.74072627694800       60.25822185517092      111.67387014699649
H            0.98111409244822       60.65961644649815      110.12570765649238
H            1.21102134071030       58.96872430249386      110.58847349127083
N           -1.18738265112697       61.04158061926313      111.65364350143933
H           -1.00464866951587       61.92925671490561      111.21572292466124
C           -0.36696770626407       59.94387611599738      111.60797099564569
C           -2.29896829719450       60.68766949965548      112.33717203579424
H           -3.12280934086076       61.34706264576690      112.52364789715254
N           -2.23325477037517       59.44890189791519      112.73947035218528
C           -1.04109947815226       58.96894908641820      112.28843341196142
H           -0.74852770451750       57.95903750166989      112.48587716052135
O           -4.22900000039193       57.77900000003010      113.25199999950460
H           -4.51099999963360       57.36900000102801      114.07000000044962
H           -3.54300000215188       58.33499999956631      113.15200000000000


--Link1--
%mem=16GB
%CPU=0-71
%gpucpu=0,1,2,3=0,1,2,3
%oldchk=1ccb_II_S.chk
%chk=1ccb_II_Sn.chk
# apfd/def2TZVP int=(grid=ultrafine) geom=check guess=read pop=nbo scf=qc

1ccb_II_S_nbo

0 1


