%mem=16GB
%CPU=0-71
%gpucpu=0,1,2,3=0,1,2,3
%chk=1c75_II_S.chk
# polar def2tzvp apfd int=(grid=ultrafine)

1c75_II_S 

0 1
Fe          11.12634800378405       24.02001565569552        1.90300941309747
N           11.59325335070274       25.93997095211168        2.16077596363637
N           12.36443954393843       23.85276360059159        0.39196296199882
N           10.63236099337766       22.07102053324529        1.78459531438248
N            9.85405963587032       24.16458201371134        3.50169596865799
C           11.16073758523079       26.80061292878350        3.11428163393852
C           11.72137180450391       28.11897972586974        2.90770381743349
C           12.48368407146595       28.03509891497540        1.78575682552967
C           12.40031312007516       26.66104971285160        1.33878441300996
C           13.08109135917721       24.85402218830554       -0.18086979420674
C           13.90628694163532       24.33457439104951       -1.24995382939174
C           13.65905270423619       22.99765064383256       -1.31050154745894
C           12.69646087197254       22.71496611813096       -0.26872862827192
C           11.22482410708177       21.17051826489874        0.95625608803854
C           10.68588072591084       19.84306936011704        1.17609386873950
C            9.76441273174756       19.97096822017044        2.18179977892585
C            9.75123732972206       21.36556205949862        2.54164381785931
C            9.03827797867085       23.19980636227549        4.00151807306810
C            8.27514372866388       23.70086970796698        5.12833640284663
C            8.68228932885201       24.99557170653598        5.30916726409095
C            9.65269086110759       25.26233381165672        4.27937037873097
C           10.26689079456919       26.49186764332408        4.11641243923999
H           10.00445122049436       27.27498171551392        4.81075885219431
C           13.08321023383434       26.17227764936169        0.23887281086920
H           13.69005689422503       26.86975280801347       -0.31777966060020
C           12.16639987480577       21.46396404355068       -0.01508134316169
H           12.52448360869814       20.64548194644869       -0.62093031890604
C            8.97743610407207       21.89161189568854        3.56188295532563
H            8.28320995764426       21.22745622478195        4.05337809119235
C           11.44560216585981       29.29486288089341        3.78050822272456
H           11.73133831119070       29.08687860951129        4.81218087737260
H           10.38249000029338       29.53690163506005        3.76765982733769
H           11.99837492619312       30.16786916203606        3.44171823285858
C           13.27026940703602       29.09764140546035        1.09750592485806
H           12.92724618283883       29.21607953637774        0.06929651172010
H           14.33045983407321       28.84200027353681        1.07350499663531
H           13.16004396035854       30.05142371690087        1.60779902578465
C            8.28430233918744       25.94836780640490        6.38064768501990
H            7.54418303717739       26.66340334823429        6.01789205783081
H            9.14894353624711       26.50846733371487        6.73324103538013
H            7.85458932946881       25.40445486074525        7.21905909137293
C            7.32595459556210       22.92609526357044        5.89608572222499
H            7.55180424081687       21.87017628459956        5.99000005901172
C            6.22725518803356       23.39996140510544        6.47409571730857
H            5.92631750244991       24.42868534906550        6.37949183273227
H            5.57149041117493       22.76392979270974        7.04491294502855
C            8.96804208971616       18.90374824936032        2.84791720542043
H            7.94738168191825       18.88162002157997        2.46144858100791
H            8.91537607399565       19.07092704942663        3.92305994419234
H            9.42319292473822       17.93161792918031        2.66856298136928
C           11.09650736899479       18.65534719539739        0.46018412133665
H           12.13974997724586       18.61998732114742        0.16668354174053
C           10.30202366491427       17.64105872600512        0.13436431403023
H            9.24886487596644       17.64364882411251        0.35556618672393
H           10.67509531504953       16.77783249659184       -0.39201267466076
C           14.23361704199721       21.97134361372866       -2.22575751325183
H           14.94684979190829       22.41954216057902       -2.91350298282229
H           13.44717793551122       21.49416428856057       -2.81111627771240
H           14.74639641580086       21.19666480176676       -1.65528990726755
C           14.81320523236622       25.16608559415165       -2.09086458996044
H           14.25350089643567       25.95026998839081       -2.60136790647975
H           15.31161474744363       24.55741839877127       -2.84143945419721
H           15.57616702075256       25.64326992476390       -1.47512051722654
C           14.24154616267225       21.84552534064626        5.98899187834805
H           15.05237456807744       21.17422220873849        5.70469896915291
H           13.42697118052542       21.25350238474984        6.39448728194791
H           14.60998705128176       22.51363702171838        6.76753296929867
N           14.56247827025990       23.48009033122103        4.11783394390680
H           15.52777296297924       23.68032983938182        4.32227797238188
C           13.75882633739226       22.61655225804143        4.81544544381761
C           13.82338716348597       24.00929384064623        3.11715685912413
H           14.19349282905062       24.72186251247339        2.40934814748819
N           12.60281064671993       23.53303209819549        3.13875318696104
C           12.54694042175461       22.66559525562239        4.18894754096695
H           11.64543464746465       22.13958632989368        4.42319251664691
C           10.13069069059470       24.29020438993630       -2.21822125896852
H           11.15670624350618       24.50669236958375       -1.93692168126141
H            9.64100068338437       25.22497740933436       -2.48095199649574
H           10.13828170051598       23.63956201195790       -3.09048150547238
C            9.39984877355456       23.61500857224904       -1.07374185788069
H            9.88410143436259       22.68180327423253       -0.79097763992650
H            8.36015019975071       23.42645648113887       -1.34016604089431
S            9.37610790086370       24.71238703163352        0.40359332653369
C            7.80129543549399       24.14521285869053        1.11588104714389
H            7.85499095505258       23.08276050871128        1.33063111161917
H            6.99762939151192       24.36440280692317        0.41763357132906
H            7.65339086331108       24.69815681875604        2.03692938463181


--Link1--
%mem=16GB
%CPU=0-71
%gpucpu=0,1,2,3=0,1,2,3
%oldchk=1c75_II_S.chk
%chk=1c75_II_Sn.chk
# apfd/def2TZVP int=(grid=ultrafine) geom=check guess=read pop=nbo scf=qc

1c75_II_S_nbo

0 1


