%mem=16GB
%CPU=0-71
%gpucpu=0,1,2,3=0,1,2,3
%chk=1cxc_II_S.chk
# polar def2tzvp apfd int=(grid=ultrafine)

1cxc_II_S 

0 1
Fe          83.29699136078113       24.11665713285338       17.70164713180860
N           82.41442965075308       23.83918259127714       15.94423893651254
N           83.85795806935116       25.94768005233429       17.15754417789365
N           84.20689562688443       24.36905193949801       19.48258469005902
N           82.69556871851506       22.29423125521656       18.29969307872834
C           81.68233034837074       22.76530979246558       15.55267314821005
C           81.24686260396977       22.91741361918553       14.18096962659198
C           81.70447902749385       24.12873392167502       13.76827626941571
C           82.43117487458750       24.69000664955346       14.88678877396558
C           83.70681942026380       26.50776571733722       15.92881762989080
C           84.31215645672725       27.82052109402075       15.88834182420036
C           84.80398239612957       28.05183249512279       17.13554252994365
C           84.52130463175816       26.86338110413431       17.90983962609995
C           84.79595145321055       25.50607566583466       19.93452953726568
C           85.28988879638955       25.32656034988033       21.28532805351096
C           84.96306206860068       24.04424792326446       21.63934501015917
C           84.29759452785559       23.46786199578639       20.49945097497356
C           82.96736662205613       21.67660829439874       19.47770529938013
C           82.27502477702231       20.40501630116322       19.56320131897370
C           81.55500058160423       20.29219312033033       18.40354356677441
C           81.84670116300855       21.47039075859156       17.62864842593201
C           81.38424143818604       21.67209903331512       16.33937479064902
H           80.75845669912206       20.90485656581388       15.90976877874796
C           83.04192191401511       25.93003166395302       14.86283791527938
H           82.99071777215488       26.49373796082932       13.94371176667078
C           84.95317796159065       26.67234862450207       19.20806965568345
H           85.47041169375913       27.49134247256031       19.68378076846653
C           83.74364865716261       22.19881146768482       20.49416000451672
H           83.90507643466955       21.58370514400559       21.36615605487157
C           80.44184872767863       21.90690837746921       13.43833753878489
H           79.48746741824506       21.73368615533000       13.93670798312855
H           80.97431179534892       20.95709209820236       13.38904411523135
H           80.24217420684381       22.24065930398143       12.42303903464773
C           81.54686232018673       24.79948576081267       12.44667112911791
H           82.52084685083683       24.97923490402121       11.99120227657588
H           81.04462724942395       25.76074599384717       12.56021503473733
H           80.95983713147145       24.18517670858381       11.76842700641772
C           80.60132231607476       19.22077188457238       18.00438282179494
H           81.07180506986015       18.51612545124706       17.31655005697220
H           79.73151587411327       19.64756989346421       17.50705620143259
H           80.26726709498618       18.67178876365937       18.88241263342004
C           82.34618107287470       19.49845039134167       20.68752339205246
H           82.47158507190508       19.96191583257488       21.65941498051946
C           82.28190644106186       18.17299228194553       20.61300308211308
H           82.20636703220529       17.65482595116632       19.67303922182645
H           82.32988770256604       17.55631267577681       21.49518876235013
C           85.17210573735932       23.36525049659079       22.94794776165477
H           86.04873864918648       22.71570797998845       22.91610877723627
H           84.30990060743697       22.75315730664074       23.20873383818730
H           85.32169416703213       24.10556981645345       23.73122186141737
C           85.95011433214786       26.35073750905955       22.06415284044698
H           85.61962830594472       27.36609420301727       21.87711515583898
C           86.91005533555735       26.14075188088092       22.95898560949751
H           87.31032681256335       25.16055817773527       23.15131015816783
H           87.34929323477908       26.95249828515591       23.51486804539190
C           85.52563420860579       29.24536962468265       17.66002595634584
H           86.53663864117098       28.97747626298123       17.96860892234433
H           85.00640042200632       29.65680672859753       18.52580956388483
H           85.59367407329221       30.02095336898170       16.90107259905314
C           84.34186462315262       28.69577542860040       14.68234735501216
H           84.88907313830140       29.61341424093855       14.88374457087745
H           83.32999115345793       28.96062530812163       14.37330947499405
H           84.82526842320696       28.18337543290203       13.85049530775878
C           78.91414316210651       25.42652976272048       20.88671317849921
H           79.22232622849737       24.78338824390482       21.70502243826723
H           77.92842885637839       25.10962019205003       20.54595344178731
H           78.83464376652323       26.44880730761630       21.25629041964913
N           79.78667093710924       26.05894476968072       18.62559462858992
H           79.04263650245142       26.70046753946951       18.40552605785519
C           79.90632165429906       25.33916808081667       19.78561081876791
C           80.84424535688144       25.75128403046173       17.84148823622702
H           81.01408884977323       26.16586262074500       16.86944684384342
N           81.62453573500318       24.88126188328625       18.43412345364074
C           81.05527009379958       24.61516440673006       19.64382474253906
H           81.50669828670131       23.92596603096299       20.32669743517292
C           87.13641317600577       25.16980980094083       16.13804971395758
H           87.99714415358898       25.75426414294375       16.45724143711039
H           86.31266988952352       25.84768899262876       15.93634985882532
H           87.38697365046613       24.64790136360478       15.21754982804354
C           86.75309674454419       24.17855121152613       17.21968612352476
H           86.50051702850887       24.68691343661664       18.14841770685225
H           87.56059684821183       23.46798426419944       17.39456539251059
S           85.28883114593494       23.19565799048803       16.69343541233147
C           85.67540738802231       21.65971923766745       17.58799383024066
H           86.60622540572936       21.25035569098549       17.20405712737548
H           84.85992613761776       20.97068675746713       17.39745934076198
H           85.74477801717929       21.86048305681501       18.65226010092418


--Link1--
%mem=16GB
%CPU=0-71
%gpucpu=0,1,2,3=0,1,2,3
%oldchk=1cxc_II_S.chk
%chk=1cxc_II_Sn.chk
# apfd/def2TZVP int=(grid=ultrafine) geom=check guess=read pop=nbo scf=qc

1cxc_II_S_nbo

0 1


