%mem=16GB
%CPU=0-71
%gpucpu=0,1,2,3=0,1,2,3
%chk=1ch7_II_S.chk
# polar def2tzvp apfd int=(grid=ultrafine)

1ch7_II_S 

0 1
Fe          34.93783811510773        4.10313271837133       10.37229886849549
N           36.80254060225876        3.81095687358279        9.73585558498924
N           34.59694523793688        5.35064562814457        8.83961634182588
N           33.07323989723407        4.45862545241133       11.05732218404258
N           35.27513511931847        2.90825210943854       11.93987081687945
C           37.77563992096891        3.09151535762349       10.35333798973573
C           38.98605544541021        3.08213910378041        9.56099841608509
C           38.74879181137383        3.89369162664271        8.49607844682040
C           37.38738220327360        4.36326181734324        8.63959415503096
C           35.48802848023859        5.71695990479038        7.87922771169399
C           34.88836468598783        6.63471005772583        6.94378096646663
C           33.60715958083618        6.84500814322036        7.37855196240176
C           33.45502546156125        6.03564398838246        8.57334964655627
C           32.14943840843321        5.30435730675388       10.51967537049820
C           30.99634500546075        5.41786824239348       11.37293040272674
C           31.24154374791430        4.61524917285050       12.45732452945534
C           32.54189483339406        4.01856746198735       12.22729655078252
C           34.42215718177152        2.62785614234844       12.95975047896365
C           35.06007210595825        1.78257542820189       13.94564699023803
C           36.34982623358695        1.63599076204935       13.54182471818033
C           36.46071923391970        2.33454971594746       12.27945652692913
C           37.63217954624837        2.41335254685203       11.55028050753426
H           38.50023556203514        1.90604833704703       11.94336099214014
C           36.79395561090286        5.26825382967951        7.78369277879066
H           37.39422982951159        5.65007077469014        6.97200185591243
C           32.29807958486315        5.99245001146440        9.32640000209781
H           31.46699702071406        6.59779824829060        8.99806827050925
C           33.13358415051208        3.10877506820950       13.08442043708003
H           32.57092939618872        2.80218226884620       13.95281658707819
C           39.65149140315796        4.26145042564136        7.36860637443224
H           40.60545040957955        3.74637550222748        7.45220091851950
H           39.84193639838617        5.33506127337694        7.36539730708371
H           39.19942003058011        3.99610958295341        6.41273926736575
C           40.22287122738243        2.33239130840250        9.92214981118614
H           40.00809140763224        1.26980886771697       10.03827219382069
H           40.63258528018559        2.69809181124555       10.86421458271473
H           40.98265332030393        2.44625868145399        9.15278584336878
C           35.55113969706024        7.17151545914618        5.72329592119897
H           36.17436052140760        6.40978400269681        5.25726925016091
H           36.18642302148281        8.02460192761133        5.96756381905527
H           34.80185882431519        7.49637342720763        5.00417007107444
C           32.56654510816861        7.66653983380141        6.80101994887753
H           31.55549296814733        7.29245845766897        6.91645361492792
C           32.75559023477148        8.81807623800132        6.16455085112633
H           33.73001770997658        9.26250043496340        6.06138034244682
H           31.93194096674052        9.37196864330695        5.74518547309768
C           29.83655985789967        6.32106801805029       11.13394673130114
H           29.10855177981350        5.85291891759597       10.46917076682009
H           30.16055229321846        7.25411179486971       10.67509783041393
H           29.34208620069319        6.55000264500327       12.07596752358932
C           30.42813093756701        4.38969582834166       13.63125893963596
H           30.97439414503589        4.20937623619098       14.55013564881328
C           29.09926120408796        4.38148225198010       13.66197847446971
H           28.50420521287532        4.50615443317545       12.77431450464418
H           28.55834236771956        4.22073887050798       14.57991507162815
C           34.38907702253213        1.26424906614054       15.17137357619931
H           33.47816177628636        0.72629677596025       14.90950428123316
H           34.11751566898442        2.08387990682041       15.83775901868977
H           35.04410230771416        0.58674843341393       15.71393572965297
C           37.46491553471392        0.89215291641234       14.19412730513004
H           37.83072287828307        0.09645987719801       13.54423818900679
H           37.13655094252013        0.44643977674358       15.12986729790449
H           38.29778986043290        1.56217018565569       14.40824291618496
O           35.51499999999842        5.90999999999956       11.62899999999558
H           34.66400000000007        6.26699999999827       11.88199999999868
H           36.31000000002084        6.20899999999898       11.89300000000097
C           32.02830186332299        0.65973250585085        7.09747804172392
H           31.56340057593268       -0.20759723116517        7.56620327458597
H           32.47160779637208        0.34085480932442        6.15414053422588
H           31.25888508760178        1.39640126762514        6.88886292168301
N           34.15076174569410        0.55282314517579        8.42264959670088
H           34.36660046246838       -0.40278548563321        8.19069126315919
C           33.05567055033228        1.25389945222793        7.98986870237875
C           34.87757152796884        1.37512221797144        9.21303649150839
H           35.79182456032603        1.09435864722929        9.69408568776579
N           34.30950054913822        2.55287714510955        9.30613440657240
C           33.17562837115567        2.49309825036379        8.55055787878894
H           32.52709937634616        3.33970877706566        8.46218831920964


--Link1--
%mem=16GB
%CPU=0-71
%gpucpu=0,1,2,3=0,1,2,3
%oldchk=1ch7_II_S.chk
%chk=1ch7_II_Sn.chk
# apfd/def2TZVP int=(grid=ultrafine) geom=check guess=read pop=nbo scf=qc

1ch7_II_S_nbo

0 1


