%mem=16GB
%CPU=0-71
%gpucpu=0,1,2,3=0,1,2,3
%chk=1cpt_12_opt.chk
# opt apfd/gen scf=maxcycle=999

1cpt_12_opt

1 2
Fe          36.67999691437420       13.13030870080554       86.91814162603943
N           34.75222151454122       13.20477595175769       87.40910257085945
N           37.11309292052465       12.30104770598228       88.68041048103834
N           38.62323934981501       13.10894144833113       86.44332459561103
N           36.25581004301502       13.99442631717634       85.17260178235438
C           33.71040148363345       13.52887736097325       86.59945235378011
C           32.46166908822307       13.45358938470892       87.32400794545103
C           32.78092994414578       13.10878837929138       88.60311598627806
C           34.21637876899376       12.93868712565892       88.63323227431391
C           36.26629800853190       12.16130263993353       89.73877825366135
C           36.93697712209867       11.53298750675027       90.84592903497632
C           38.21568216084592       11.26509444346108       90.42281496678557
C           38.31050054917716       11.78789206690711       89.07546756647125
C           39.62534190463780       12.47340692057950       87.11822890433392
C           40.88368368083923       12.65158586310226       86.44385789380831
C           40.62446505937859       13.43200264420474       85.34450421989141
C           39.20115802994768       13.69246150119256       85.35919831464618
C           37.14630882795034       14.44154306266921       84.24648243703233
C           36.45510136374794       14.96531340716875       83.09025538232680
C           35.12402394862874       14.78746359211710       83.32518054780500
C           35.01786519357037       14.19341788951678       84.63717879808470
C           33.82333962258795       13.95253691575534       85.28689747652926
H           32.91249243751751       14.17531293422896       84.75489679900060
C           34.91832768429273       12.48283984189690       89.73011366355759
H           34.36012510619528       12.30251667722959       90.63475605574769
C           39.47279230762263       11.81807074360708       88.32884006562824
H           40.34901603274427       11.35545389262098       88.75341206578302
C           38.52163489204183       14.33920659946853       84.34387174766634
H           39.10480856758639       14.72477570305912       83.52317481005541
C           31.89069760649432       12.91326733166344       89.77718697171784
H           31.92725149240637       11.87942234373656       90.12016724921307
H           30.86231683096289       13.15347913789099       89.52448379590487
H           32.20017831483730       13.55490342609229       90.60099568300042
C           31.12993503599803       13.73362614465529       86.72617563885663
H           30.96399844496910       13.10954637843984       85.84901374092945
H           31.06111107736461       14.77646636678225       86.41750290531022
H           30.33745989832904       13.53664008483726       87.44200443908531
C           36.33418334157314       11.29189225349249       92.18138540206562
H           35.74295680606981       10.37529495645615       92.18303924204537
H           35.68168965924247       12.11550569536175       92.46391889908109
H           37.11722094387624       11.19413111957940       92.92951843074839
C           39.30204651374113       10.63707682904382       91.14296537948952
H           40.29463690946611       10.99913998116932       90.90781464952175
C           39.16067295302505        9.66689064457573       92.04020324713163
H           38.20386651825163        9.23522384919040       92.27569584866973
H           40.01167649216791        9.24916193948545       92.54925938810774
C           42.19302829759408       12.14220047450148       86.92512026992163
H           42.32920930455648       11.09780503815904       86.64252865872473
H           42.26271925129161       12.20951746563595       88.00893581897066
H           43.00111580596350       12.72365119424835       86.48803112383840
C           41.53895472670470       13.93904385501459       84.34370168568999
H           41.30423803204459       14.92020476759899       83.95017464632690
C           42.60677068217724       13.29194606756649       83.88939584749031
H           42.85420016974706       12.29525411549378       84.20990974373275
H           43.25372955326284       13.73131295783672       83.15021870978458
C           37.13352360153829       15.54786891404967       81.90342246656327
H           37.73976624444236       14.79354563633564       81.40245044237346
H           37.78797084782646       16.36710050667401       82.19858131638127
H           36.40633186968179       15.92942548409754       81.19296642865095
C           33.96102850063266       15.12655454758897       82.46419831384561
H           33.34611317079980       14.24486721326020       82.28926637600114
H           34.29194402499540       15.50929763234111       81.50343834595965
H           33.33939709604378       15.88477172813217       82.93997869457343
O           36.96845368210855       15.14061079494598       87.80775759766742
H           36.55976909618898       15.86673275031611       87.32450497112359
H           37.88844045594813       15.38062857640174       87.96291754786105
C           35.22331876002978       10.05268793449848       86.87346007065882
H           35.31322632555740        9.00404423115302       86.60662448785880
H           34.24367045028540       10.42313803165788       86.58907590120597
H           35.38390159707252       10.20159278819954       87.93605252148195
S           36.44911637063355       11.00465075288641       85.91581675431978
H           37.52148071690893       10.39825083879997       86.43991172859917

C N H O S 0
6-31G*
****
Fe 0
TZVP
****


