%mem=16GB
%CPU=0-71
%gpucpu=0,1,2,3=0,1,2,3
%chk=1cpg_II_S.chk
# polar def2tzvp apfd int=(grid=ultrafine)

1cpg_II_S 

0 1
Fe          -5.98302250979013       57.11810493567732       20.83566825594646
N           -6.88100639292597       56.15739207130095       22.40196519926854
N           -6.87008562950956       58.84195122175097       21.45506093570409
N           -5.22449424179094       58.07988529583494       19.30951090896455
N           -4.99561303752789       55.42410412445844       20.44298861047049
C           -6.56586739314503       54.91362954684428       22.85425521931848
C           -7.17173653945110       54.65459662322230       24.13998133131364
C           -7.85568336299437       55.78240084932189       24.46850997586845
C           -7.56783756167642       56.74764279175384       23.42711526896117
C           -7.63193481150646       59.03054453160306       22.56224932028228
C           -8.21581998955843       60.34433935701040       22.57176531974135
C           -7.77931155220217       60.96415932094222       21.42909764326536
C           -6.99304974859254       59.97714538143903       20.71266337415484
C           -5.40970920986584       59.37624525764112       18.93972053304720
C           -4.57333341103456       59.70503393110138       17.81080393646720
C           -3.86338643275550       58.57048052067485       17.51685443722237
C           -4.39964249088729       57.53240763061408       18.38052519405794
C           -4.31248994877709       55.23629961510576       19.28097224132042
C           -4.03415295058772       53.83022527353927       19.07420172572490
C           -4.67082174830043       53.16682534710618       20.07593180163924
C           -5.21376976906864       54.18251593651698       20.95074735854521
C           -5.98577617358958       53.92457134370071       22.06669826475738
H           -6.00860389681954       52.91093602991278       22.43930713808050
C           -7.80809746700171       58.09570101293991       23.57458758165777
H           -8.34372262620442       58.41031942018557       24.45745398115213
C           -6.20340158161968       60.28459440479498       19.61859718278352
H           -6.29554980090708       61.27376141611254       19.19669096569104
C           -3.93360274898423       56.22742625983354       18.39182660198056
H           -3.30770243408069       55.92625093431177       17.56415277532902
C           -8.66519919407733       56.06999613786748       25.68694537333236
H           -8.13525250863490       56.75112873455873       26.35474095514959
H           -8.87629405495437       55.15342781112871       26.23269091608323
H           -9.61269354056772       56.53365838983955       25.41453586183063
C           -7.06108665869994       53.36538383078545       24.87928759992891
H           -6.01526272090036       53.07940769596463       24.98757060914512
H           -7.57475963465333       52.56636067690602       24.34301475832987
H           -7.49888267988015       53.44975194736346       25.87099836350784
C           -9.02776085797697       60.91585184589724       23.68213796911564
H           -8.65663253836961       60.57685389702746       24.64828773805153
H          -10.07285567735764       60.61218320814794       23.59819907902690
H           -8.98346208092721       62.00265790800812       23.65498770232218
C           -8.07404053321784       62.29585140288260       20.94758425697550
H           -7.28752212420021       62.77088108641676       20.37292390648779
C           -9.20813662110024       62.95966866455420       21.14748344173997
H          -10.04465028025354       62.52561563120467       21.66685451796236
H           -9.34951536268547       63.95919008372426       20.77049332181344
C           -4.41844480964295       61.06749265608259       17.22950070332011
H           -4.49178791093654       61.83104597320806       18.00218112996557
H           -5.19550032643643       61.26210041971462       16.48825179294551
H           -3.44969163547810       61.15739505833318       16.74214962119311
C           -2.85592866341914       58.35320131855436       16.50109444762695
H           -2.09133728275469       57.62818004703738       16.75599991402440
C           -2.80030717859431       58.95757945498481       15.31870129996809
H           -3.55613097638269       59.65021763386758       14.99213949015987
H           -2.00431992964070       58.75672961898190       14.62060995948844
C           -3.27694958588715       53.28149071437727       17.91339368265607
H           -2.28076248568912       53.72136119816133       17.86754415212835
H           -3.78742967233379       53.50502198913176       16.97586055772383
H           -3.17039000526543       52.20261249831985       17.99665269946810
C           -4.76477930028523       51.70211690025619       20.33339603729507
H           -4.27942046420083       51.13675388099998       19.54153066729402
H           -5.80869428501820       51.39244917372219       20.38696258284922
H           -4.28868990479358       51.44586591106771       21.28063872163668
O           -4.29100000000179       57.63499999999845       22.25800000000147
H           -4.49600000000814       57.11100000001306       23.03199999998975
H           -3.64300000000243       58.23899999999050       22.18899999998985
C           -9.38578578646094       55.12979623669312       16.86704967582691
H           -9.98806697130605       55.84388371089966       16.30531636848073
H          -10.01699434001098       54.27902445112557       17.12348363785754
H           -8.57553680947641       54.78394100731132       16.23297024808637
N           -9.61715461336582       56.26000505922956       19.08983221247275
H          -10.62387484184920       56.25841673569727       19.10037904561549
C           -8.82588942244329       55.75801076694277       18.09035375481885
C           -8.80216735067921       56.75310238095491       20.04896709156021
H           -9.14546052100919       57.20975692634595       20.95386495734320
N           -7.54355916269945       56.59419341989410       19.71818495769867
C           -7.54226346458235       55.97768134313099       18.50152393399619
H           -6.62525418796749       55.73267479974081       18.00662612371348


--Link1--
%mem=16GB
%CPU=0-71
%gpucpu=0,1,2,3=0,1,2,3
%oldchk=1cpg_II_S.chk
%chk=1cpg_II_Sn.chk
# apfd/def2TZVP int=(grid=ultrafine) geom=check guess=read pop=nbo scf=qc

1cpg_II_S_nbo

0 1


