%mem=16GB
%CPU=0-71
%gpucpu=0,1,2,3=0,1,2,3
%chk=1c52_01_opt.chk
# opt polar def2tzvp apfd int=(grid=ultrafine)

1c52_01_opt

0 1
Fe          16.52628405060216       35.25256637928034       34.32752827829672
N           16.76507674152085       36.85599277901585       33.16040066634515
N           18.34484509991862       34.59506503997559       33.80177712306549
N           16.27600400303549       33.63338147287035       35.48231403306264
N           14.68760519415072       35.87542761999787       34.80499810405446
C           15.90165070028974       37.89212079735409       33.01026174110962
C           16.43759418753332       38.87704693036545       32.09579755839039
C           17.64375371826730       38.40169950275633       31.68819210768912
C           17.83260997279922       37.13896603034475       32.36932904247069
C           19.19159465457745       35.16858511065789       32.90581605311642
C           20.40815838374177       34.40707280568351       32.78936105857235
C           20.28652058010903       33.35143912711404       33.65388242400333
C           18.97623686053875       33.48407769858495       34.26062458374649
C           17.19226150900768       32.65715206905396       35.73136980453317
C           16.65056872842198       31.65868240647651       36.61686902671706
C           15.36205984517115       32.04100808248064       36.88294706668363
C           15.15176633402453       33.27547054428926       36.15273437927974
C           13.77491187286506       35.21743767414551       35.56654234392068
C           12.55418480097325       35.98570406292730       35.67889997373626
C           12.75796827744128       37.12940403678451       34.97189516347552
C           14.09394066482039       37.03625660129825       34.42615505866393
C           14.65919282137263       37.99523071661083       33.60682811777543
H           14.07635947668105       38.87926584735321       33.39789401386594
C           18.95775940150508       36.35334872884130       32.22854618200322
H           19.72738166363282       36.70317371953154       31.55756531802270
C           18.46407306335047       32.59684153630908       35.18789232157210
H           19.09469811015342       31.77559313892633       35.49276841011271
C           13.97715006577278       34.00260516502272       36.19253247046382
H           13.16249589697471       33.60485344907605       36.77786415587223
C           18.62675455353306       39.00321115999967       30.74326884267708
H           18.25526519236968       39.94452120002471       30.34569135237546
H           18.81779097705998       38.32928672543954       29.90764950238043
H           19.57473101837018       39.19409413562357       31.24681469575729
C           15.74238688270581       40.14039260900253       31.71917797218365
H           15.54108418460391       40.74300764887427       32.60479269655028
H           14.79003181517676       39.92647023827498       31.23258802308129
H           16.35069866325683       40.72809896711803       31.03607165393089
C           21.52440237621276       34.71195900396064       31.85259553826338
H           22.18422773651911       35.47624788621583       32.26714620260644
H           21.13966611230164       35.07868681803327       30.90208086068202
H           22.11240784430299       33.81504906184222       31.66828711941905
C           21.21713940737243       32.27833559647339       33.92395410941781
H           20.77225255435019       31.31628384752923       34.15167283543225
C           22.54170193491147       32.38895320823104       33.92298226973122
H           23.03783699218457       33.32824262270511       33.75161239899811
H           23.17799975143588       31.54235680364629       34.12106090976852
C           17.35936922905820       30.42595962618718       37.05873610763568
H           18.02230948637462       30.63667020073387       37.89989566603962
H           17.96293344019414       30.01579478769616       36.25023929825284
H           16.63829787046317       29.67288875852641       37.37009271263094
C           14.36205297338994       31.38311221310618       37.69416704035569
H           13.33980639411088       31.48215495196822       37.34741206673405
C           14.60120112543392       30.69421927003357       38.80531079938965
H           15.58911111398832       30.60339092550628       39.22224826826091
H           13.80657252396721       30.21630202529170       39.35401140231401
C           11.35540127523131       35.55111230791296       36.45021890669643
H           11.60361243462123       35.42271953035446       37.50428937719151
H           10.98098771925399       34.59907935556179       36.07322577208210
H           10.55865438001527       36.28699333250805       36.37397816758587
C           11.84052402125247       38.28409103031227       34.75743034459241
H           10.89797430592870       38.13110932582721       35.27732201715161
H           11.62904586701083       38.41693976642711       33.69587718098074
H           12.29227339963352       39.20383791862638       35.12920643066818
C           15.23189664698230       31.43043159492812       30.48043670904130
H           15.52235136835532       31.62796964973201       29.44861287710750
H           14.21798164147401       31.03036148127615       30.47849052436394
H           15.90058580851799       30.68138447565856       30.89276125530067
N           14.57508627547026       33.78925110394272       31.00719684337560
H           13.92994722852605       33.88839290005109       30.24064483722258
C           15.30907576165692       32.66857721474805       31.29625214404901
C           14.87587525535846       34.72657737426061       31.93371605767266
H           14.45001720921490       35.70824453151138       31.95730250402512
N           15.75464318383734       34.26765541092992       32.79056419874626
C           16.03385555704919       32.98941794050268       32.40801851875275
H           16.73244429237845       32.38982370824004       32.95348442190425
C           15.63426084390901       36.60516255445441       38.22022269711490
H           15.32655554858732       36.20720506989024       39.18520960892302
H           14.83789113597919       36.43128551646783       37.50263794999245
H           15.78866943039460       37.67746662177721       38.31380235928773
C           16.90965941506873       35.92601295937512       37.76158011198410
H           16.76987309302482       34.85053520527025       37.66705041571303
H           17.72822867489743       36.13338382279940       38.45090109351504
S           17.42302988213530       36.58186409801109       36.12156794393361
C           19.19924127664105       36.20798887281869       36.24791290533158
H           19.34402206815952       35.14422648298498       36.40830647657146
H           19.62593197996304       36.78717642358273       37.06275683781043
H           19.64966418654906       36.50156305404415       35.30587558581413

--Link1--
%mem=16GB
%CPU=0-71
%gpucpu=0,1,2,3=0,1,2,3
%oldchk=1c52_01_opt.chk
%chk=1c52_01_nbo.chk
# apfd/def2TZVP int=(grid=ultrafine) geom=check guess=read pop=nbo scf=qc

1c52_01_nbo

0 1
