%mem=16GB
%CPU=0-71
%gpucpu=0,1,2,3=0,1,2,3
%chk=1cry_II_S.chk
# polar def2tzvp apfd int=(grid=ultrafine)

1cry_II_S 

0 1
Fe          20.85568098592173      -19.21211521364140       13.88210856842414
N           22.76243915046430      -19.05498898413475       14.40857026679238
N           20.98032872615635      -21.19890162805070       13.88895769738795
N           18.94863501120780      -19.29552301879762       13.28469207712086
N           20.76282028001191      -17.17724228036492       13.74049669155548
C           23.45912470897348      -17.93166674011941       14.69540159247890
C           24.84593492314118      -18.23656216141151       14.96904324057607
C           24.97698023198542      -19.58004301840259       14.79979533610269
C           23.66234954049696      -20.08447677711574       14.45984422625987
C           22.11278121410769      -21.94295260511518       13.97788711585259
C           21.84004572182942      -23.34246885732334       13.75158731446190
C           20.49938188229871      -23.42952779365736       13.51396255634105
C           19.99491823607270      -22.07444325323942       13.55955992664030
C           18.20937646125693      -20.43967906825397       13.13377165841057
C           16.86421584254401      -20.11719729952619       12.69732718399966
C           16.80137357948028      -18.75267375361387       12.61709193019791
C           18.10297519056672      -18.26899765838277       13.00727593811493
C           19.65590184443371      -16.43635685125798       13.46425326060692
C           19.86165715928864      -15.04970099336356       13.83416185568329
C           21.12156740885636      -14.98725047081779       14.36419133177075
C           21.65765716136684      -16.32292027856263       14.31136973837769
C           22.92805807184838      -16.65304069085075       14.73950308086346
H           23.56199755491979      -15.85154309095728       15.07793506925917
C           23.37012200264702      -21.41858477906495       14.24140671317402
H           24.19911847353162      -22.11046611068856       14.28605602697068
C           18.67312600142478      -21.72859961002738       13.31994210785600
H           17.97336646181921      -22.53013147003950       13.11871213655029
C           18.44168266123090      -16.92616841953190       13.02416085302240
H           17.66763493571091      -16.20908227189076       12.82850252439283
C           25.89632808697464      -17.21906109844799       15.26071968242014
H           25.64388694514880      -16.64365222511596       16.15095913725974
H           25.99856073115243      -16.52068338028691       14.42613241212157
H           26.86235026690255      -17.69267644018641       15.42014509137674
C           26.18801051343842      -20.43713295363010       14.94920663838267
H           26.38153247532984      -21.00249876962849       14.03600854198097
H           26.04028127268050      -21.14995838592743       15.76133025797779
H           27.06403453505929      -19.83649840450548       15.18116764388559
C           21.87771859621971      -13.78108670350705       14.80486397249228
H           22.72289085505649      -13.60189838892650       14.13779298977072
H           22.26658277893450      -13.90941508874453       15.81404952592153
H           21.24058506452518      -12.90012914118840       14.78306284493564
C           18.97224563618848      -13.93391177330341       13.56688079587458
H           18.92613023872572      -13.18483098288760       14.34923309683120
C           18.27452258821584      -13.74209339074692       12.45295625393221
H           18.32423692294108      -14.42081849931377       11.61744588619132
H           17.63997865205016      -12.87871125021014       12.32483623850183
C           15.64146195909069      -17.89915861316710       12.24346781283284
H           15.70562590728467      -17.59489494343511       11.19550676615639
H           15.60790053502608      -16.99484927077718       12.85150588540996
H           14.71080530329855      -18.44796731789544       12.37892129061175
C           15.81716724566715      -21.09707245998958       12.50066188204182
H           15.85121299809977      -21.94670788243674       13.17397144663263
C           14.83946493593475      -21.02326366167483       11.60452311405611
H           14.78376698653222      -20.22667360903462       10.88610513436490
H           14.07635213309832      -21.78032495092394       11.54403867039644
C           19.65554657460019      -24.63911583975143       13.28262252575869
H           20.25408780129515      -25.54644102157078       13.33582105056797
H           19.16223136852922      -24.60747787151511       12.31082487885076
H           18.88607054819601      -24.68672802340820       14.05185849943448
C           22.84952536374414      -24.43501970805082       13.86437379863488
H           22.38293016034804      -25.40584230573458       13.70839680623691
H           23.29583858879321      -24.42065019095539       14.85837420193662
H           23.64795147952391      -24.31356667479058       13.13187541892731
C           18.43575232736513      -17.85507533137131       18.69356922892511
H           19.04311105510663      -17.32057586322946       19.42396726653296
H           17.84079928269614      -18.59769457286658       19.22517347651693
H           17.76322165324771      -17.14852941674054       18.21645043388019
N           20.25135535694771      -19.42753497929549       17.96562976593790
H           20.48249747022153      -19.74813461295463       18.89348943346179
C           19.28837436065852      -18.50060958857515       17.66239911217969
C           20.82980179271763      -19.81194694168175       16.80312991060546
H           21.61629120142049      -20.53413837262587       16.74257364219185
N           20.29802911419461      -19.17915336220986       15.78333431997893
C           19.33210216827417      -18.36858994376971       16.30428475942766
H           18.74042349743677      -17.74325240498074       15.67096892117431
C           21.14108959017211      -21.83717454062170       10.31921843812261
H           22.08933273131296      -21.77155838607947        9.79155058490890
H           20.45229184716419      -22.44408437733153        9.73412256438161
H           21.31054600860742      -22.33032689145717       11.27146635198143
C           20.55598932345777      -20.45423089048731       10.53246201573658
H           19.60417766206826      -20.50803823615054       11.05799746710382
H           20.42205071239829      -19.94255567843834        9.57978940238349
S           21.70059573511658      -19.41321188228216       11.53359993920895
C           21.33605963817077      -17.80659935539507       10.77174228587224
H           21.92263412834977      -17.06908951527453       11.30816820000191
H           20.27996514646819      -17.58174702312625       10.87757939979305
H           21.63144072319610      -17.83303146454286        9.72612486787737


--Link1--
%mem=16GB
%CPU=0-71
%gpucpu=0,1,2,3=0,1,2,3
%oldchk=1cry_II_S.chk
%chk=1cry_II_Sn.chk
# apfd/def2TZVP int=(grid=ultrafine) geom=check guess=read pop=nbo scf=qc

1cry_II_S_nbo

0 1


