%mem=16GB
%CPU=0-71
%gpucpu=0,1,2,3=0,1,2,3
%chk=1gjm_01_opt.chk
# opt polar def2tzvp uapfd int=(grid=ultrafine)

1gjm_01_opt

0 1
Fe          45.86553552525108       19.86948656113665       98.24351269137036
N           44.70735401326927       21.16828478108648       97.28190073401070
N           46.81280733455601       19.43750476461077       96.51608142839740
N           46.97665929607974       18.47789234533232       99.18420073438639
N           44.90833874655713       20.24945653232830       99.94232612941954
C           43.75182859991253       21.96097739783440       97.82732867351068
C           43.10916872391175       22.76426617886224       96.80903309197868
C           43.69399575838999       22.42492091008665       95.63051257663562
C           44.69503852020912       21.42873143672148       95.94781022621285
C           46.53815241980399       19.95088489061430       95.28370217653244
C           47.45483020553004       19.43852677789573       94.30075562916204
C           48.31180045967610       18.60285948391837       94.96919532934247
C           47.87676229179824       18.60486201040545       96.35044132478612
C           48.01997865756149       17.77530801059311       98.65874469357894
C           48.58694045771623       16.89592462096635       99.64467934069738
C           47.83898649888303       17.05418111865124      100.78110117458013
C           46.86102124817536       18.07733704128071      100.47768538942526
C           45.12467797880327       19.67107197916206      101.15165599242714
C           44.28372145843524       20.27354287315030      102.16474660590919
C           43.55737519746340       21.23280981381572      101.53439429624495
C           43.96039203321161       21.19840933247480      100.14433301600465
C           43.41530902367229       22.00578298126067       99.16632224430558
H           42.65160927924547       22.70665991313069       99.46552340268653
C           45.53615263541217       20.86643753095339       95.00922150166471
H           45.42072253976973       21.18406250288155       93.98472679070105
C           48.46416627926379       17.85296576763294       97.34997926449024
H           49.32109426260409       17.25355343292981       97.08562224279717
C           46.01464719985879       18.64775423618335      101.40985120697992
H           46.08514731457403       18.28974901260642      102.42434908653534
C           43.42068757170530       22.93326271478452       94.25702168648836
H           44.30825105382106       23.40940495876542       93.83897089269563
H           42.61492329521558       23.66277251825468       94.26883285050620
H           43.13260132426674       22.11511831701894       93.59686184975861
C           42.01849061131067       23.74275945245526       97.07671514600501
H           42.35153745433825       24.50547430701298       97.78087992194631
H           41.15253896360291       23.23996300639770       97.50733937057763
H           41.70730269665006       24.23599107230508       96.15923709289565
C           47.40057281788462       19.73604911394112       92.84353571261133
H           47.88625986961694       20.68764639970984       92.62061089234192
H           46.36850798049639       19.79645019690724       92.50144854935465
H           47.90811931978310       18.95276098770774       92.28430124722922
C           49.41473967894716       17.82216666111100       94.45354949537011
H           49.58352600605178       16.86907717716877       94.94113060464281
C           50.21661631068999       18.18794896615202       93.45914031686127
H           50.12594325462820       19.14234209053684       92.97049820519092
H           51.01381448865931       17.55003996609161       93.11575415641674
C           49.72429229885249       15.96484882311785       99.40650537921670
H           50.59019668831120       16.50578049240132       99.02424218875670
H           49.45226343890132       15.20347883832099       98.67424357980518
H           50.00591476436531       15.46288863312794      100.32849967115990
C           47.99341972236623       16.33895771087536      102.03121077491716
H           49.01692914617856       16.12564004801143      102.31927280829838
C           47.00174035221369       15.90332085867454      102.79938048641138
H           45.96748687951031       16.04184137052072      102.53278537954722
H           47.19162335030646       15.36950375341492      103.71553502876853
C           44.27498449392950       19.86614810667495      103.59735564233297
H           45.26534739796028       19.98976382357680      104.03545390836045
H           43.99037256846816       18.81846406810996      103.69654122294396
H           43.57009557414184       20.46753640256735      104.16580038210905
C           42.53411919780591       22.16277933645219      102.08831363786146
H           42.41376796946596       22.01198979892187      103.15810846080066
H           41.56922825313509       21.99994458687523      101.60775711384025
H           42.82702580214130       23.19879290613342      101.91794264144241
O           44.45447259085021       18.18978146495122       97.78000548207392
H           44.64604897990287       17.58328152945916       98.50448184896091
H           44.86002677727942       17.82202834158761       96.98644937709028
C           47.56031284784198       22.69682099342845       97.42311750783327
H           48.48872384917755       23.25593177091655       97.48738860845346
H           46.71316820866803       23.35729908445741       97.57578828699064
H           47.46657032807416       22.19461486781506       96.46645495423071
S           47.50941857069288       21.46382055262781       98.77065258846488
H           48.56280329219715       20.76530969214736       98.33314805363017

--Link1--
%mem=16GB
%CPU=0-71
%gpucpu=0,1,2,3=0,1,2,3
%oldchk=1gjm_01_opt.chk
%chk=1gjm_01_nbo.chk
# uapfd/def2TZVP int=(grid=ultrafine) geom=check guess=read pop=nbo scf=qc

1gjm_01_nbo

0 1
