%mem=16GB
%CPU=0-71
%gpucpu=0,1,2,3=0,1,2,3
%chk=1ch2_II_S.chk
# polar def2tzvp apfd int=(grid=ultrafine)

1ch2_II_S 

0 1
Fe          35.26742856301022        4.06416943020636       10.29194873650890
N           37.18151613876600        3.82947360133031        9.78673643443570
N           35.02947606578552        5.43154876550205        8.85250711414873
N           33.36832686329215        4.39976919671869       10.91372725956897
N           35.52910630950142        2.82276137004142       11.85253597760784
C           38.09683164951644        3.01711333783972       10.37606249165039
C           39.34529536754547        3.03852654500949        9.64620660015251
C           39.16358398777613        3.89346836334673        8.60350020608872
C           37.80614261937760        4.38205404754857        8.71146812953341
C           35.93426474624133        5.74066465299531        7.88376645312092
C           35.37013043215046        6.66094254550276        6.92904165365984
C           34.07747710742031        6.88069001503193        7.32433167352151
C           33.88623378922914        6.08583602901952        8.52295540673129
C           32.48874070248669        5.29534939461318       10.38117639767454
C           31.29660764834119        5.38651563618186       11.18216697163795
C           31.48598965871068        4.54596671058880       12.24854141020657
C           32.79004201968085        3.94339432851784       12.05563959708968
C           34.64044614916258        2.54079483332070       12.84097098915554
C           35.22910974574967        1.66056516959430       13.82746476954350
C           36.52269291861776        1.48159744940969       13.45161324201362
C           36.68969790522856        2.21286243577105       12.21382747348455
C           37.88000643477101        2.26320012900225       11.51447417132874
H           38.71109499649296        1.69288616266494       11.90064300828055
C           37.23319134790673        5.26543202216978        7.81817789460376
H           37.85079759380776        5.61643270297549        7.00540237723744
C           32.70135809370316        6.03559372374241        9.23010359261709
H           31.89246788493575        6.66434947176695        8.89062065892703
C           33.35716085349016        3.04119264454680       12.93675065914559
H           32.77483594788492        2.74998296195638       13.79735315365445
C           40.12072603139989        4.29550718498614        7.53367043070778
H           39.72490619759483        4.04617926833862        6.54855322362733
H           41.07484518959347        3.78883463427340        7.65719273833482
H           40.29754558050437        5.37083247328933        7.56303240258023
C           40.55412852400394        2.25227051074088       10.02339616195576
H           40.32722794458619        1.18594772532129       10.04756038983652
H           40.90715405717903        2.54369111080965       11.01310238891808
H           41.36005448685915        2.41552703119496        9.31183080367841
C           36.06610928760993        7.17697232677202        5.71789066413061
H           36.69382754213992        6.40526069752492        5.27469589146034
H           36.70292106219382        8.02736893549102        5.96739272458341
H           35.33682670308714        7.50018370300344        4.97772404072885
C           33.05962574539515        7.70371056312900        6.70971702601959
H           32.04369218026093        7.33658887078329        6.79956657854558
C           33.27442998480827        8.84819185496959        6.06863658385025
H           34.25420057014341        9.28569681746901        5.98920450012786
H           32.46654846173539        9.40357245139447        5.62142600474110
C           30.10028614766869        6.20923278434751       10.85250580443767
H           29.90514867299097        6.19414004263003        9.78117478160391
H           30.24548225276427        7.24840485893121       11.15305666878374
H           29.22607668913369        5.82084024670334       11.37128774856875
C           30.60093326908852        4.26071436949727       13.35623155327859
H           30.64274273326872        3.24819841170636       13.74080848378186
C           29.77286933925526        5.13048382789377       13.92585669699296
H           29.72352156705925        6.16099779761988       13.62024948879216
H           29.13114589675772        4.84460143496064       14.74285204187011
C           34.51040959918421        1.13671946230107       15.02335564851844
H           33.61437430039814        0.59366733465013       14.72289386305303
H           34.20666328842065        1.95380478565468       15.67869114249592
H           35.14582740815222        0.46155072401314       15.59142110001743
C           37.59982736328476        0.69496065838262       14.11690183595038
H           37.96767851391662       -0.09060712939581       13.45638935846056
H           37.23270064783161        0.23139855857793       15.02942973454441
H           38.43990696914155        1.34014523497870       14.37505725931083
O           35.80200000000176        5.77700000000580       11.69100000000651
H           34.97400000000522        6.17500000000560       11.95999999999473
H           36.61399999999377        6.01599999999824       11.96399999999693
C           32.33448553435265        0.17352027229094        7.51476400799996
H           32.52468329600030       -0.87150341050445        7.75982817063075
H           32.24279234138043        0.25837020065923        6.43200720900121
H           31.39441905585661        0.47132335051861        7.96850310632785
N           34.72531934019630        0.91636119974184        7.60204361389983
H           35.06490791579887        0.24846169970416        6.92948454891064
C           33.42716702541282        1.04165304384931        8.02171657337295
C           35.45729865492505        1.84848355902947        8.25313654450911
H           36.51095952815140        1.97658160300410        8.11651953682339
N           34.70466208372605        2.55639491227145        9.06011202943664
C           33.43877095684027        2.06478679923068        8.92567401081224
H           32.62480884032907        2.47590664925394        9.48457622607869


--Link1--
%mem=16GB
%CPU=0-71
%gpucpu=0,1,2,3=0,1,2,3
%oldchk=1ch2_II_S.chk
%chk=1ch2_II_Sn.chk
# apfd/def2TZVP int=(grid=ultrafine) geom=check guess=read pop=nbo scf=qc

1ch2_II_S_nbo

0 1


