%mem=16GB
%CPU=0-71
%gpucpu=0,1,2,3=0,1,2,3
%chk=1aom_16_opt.chk
# opt uapfd/gen scf=maxcycle=999

1aom_16_opt

1 6
Fe          13.74944403915186       28.96578503690718       74.93484617066625
N           15.25230851651821       29.81063638806311       73.94231643120357
N           12.47499189259285       30.09225783022582       73.92148146772561
N           12.25266458076446       28.13501323903442       75.89631289342751
N           15.03819985595068       27.86070970544291       75.93798354001881
C           16.53532401984397       29.33665930658244       73.84484589197447
C           17.31786196173080       30.18547526676977       72.99385017869828
C           16.49408077684642       31.22090054651984       72.61384955774135
C           15.20894974488709       30.94940201608826       73.18833000638753
C           12.76415234178784       31.22757157733685       73.19718523107070
C           11.56870606957584       31.79043821870084       72.65974118565740
C           10.53926978555464       30.94511909807420       73.02780744509153
C           11.12938965031398       29.91675059414412       73.83072307782250
C           10.93618818730477       28.15308818485095       75.54101098762290
C           10.15216041203670       27.40451890361014       76.48601467427618
C           11.06217378699475       26.94995728296153       77.46338448968049
C           12.33479758632047       27.40147921342921       77.06048463146446
C           14.79832485110031       27.19520304479580       77.10108432676763
C           16.00792164518117       26.56480665705496       77.57835295616766
C           16.98106612831376       26.81886088206355       76.59580782698735
C           16.36683894027723       27.63922937193784       75.62753972016522
C           17.04201872794556       28.27221493824048       74.57500960836327
H           18.07817279815903       28.01740091227192       74.42357079462458
C           14.05003758825507       31.66877445402555       72.90424125385907
H           14.14823227461543       32.55719083881279       72.30155620662276
C           10.40646406113962       28.94448717334949       74.52668237229460
H            9.34243409756384       28.91153065016504       74.36058060428221
C           13.54575129625345       27.05601375870980       77.68166225568157
H           13.47952255173540       26.51826489476196       78.61244888756444
C           18.74741825561188       29.95555643882517       72.65397804816952
H           18.89184925856781       28.94741499936118       72.26725837543786
H           19.37692538207682       30.06929864819009       73.53730680602703
H           19.08408671158082       30.66320999239890       71.90187682155226
C           16.80490302460927       32.39529609042213       71.75592194954892
H           16.51891618446161       33.32040238152877       72.25503019993124
H           16.25814241198890       32.34000645071735       70.81392179331850
H           17.86686609193478       32.44008287603102       71.53239234465616
C           18.37317872530299       26.30098991761903       76.53648919395110
H           19.05352249504415       26.93480459878753       77.10797090700007
H           18.72881977078456       26.26592080573424       75.50945433297684
H           18.41579147924670       25.29550837895499       76.95001082157704
C           16.11325219574832       25.82804264489515       78.79640757008762
H           15.17368535260316       25.52003041638536       79.23753518359722
C           17.24036939738947       25.51241684160774       79.45059083195150
H           18.21318693577240       25.83021737637803       79.12531366289157
H           17.20470299666764       24.94362814956644       80.36337657542184
C           10.76540142682078       26.07982591170217       78.63061117140577
H           10.42714235930873       26.67335166279594       79.48179907246650
H           11.64645914547190       25.52338541514610       78.94010165798353
H            9.98062583665011       25.36959679357630       78.37783000491423
C            8.74334728853739       27.19672835692293       76.38319447872155
H            8.32930899991551       27.32907414648313       75.39086266297430
C            7.90285850103534       26.87704577022819       77.37741647539950
H            8.21774870967469       26.79094235841160       78.40067698138927
H            6.85430717981460       26.72921381836338       77.18589808982684
C            9.09104320017805       31.04589691330801       72.70906946281136
H            8.50976238304636       31.22429596522780       73.61456220153065
H            8.73217444684043       30.12060983288834       72.25906001310598
H            8.90305013217632       31.86016622896726       72.01529664956963
C           11.50530251655121       33.03050341011453       71.84058275698186
H           10.47533594768559       33.34020881684672       71.68875482333874
H           11.96160203309120       32.87105241835277       70.86275721679233
H           12.03986265756030       33.84205622738487       72.33206650284731
C           12.64921507775154       32.93532494227097       78.71444940954140
H           12.98574594605066       33.94968575117409       78.50342189534496
H           12.86484245847681       32.71756505574953       79.75981506529902
H           11.57568979122145       32.88613686991336       78.56286258485692
N           14.68769199694329       31.80495592699112       77.80263615581110
H           15.34555675589904       32.31715866396284       78.36932943618278
C           13.32738697446441       31.96233590616616       77.82591300436323
C           14.98224107155099       30.85341144619895       76.89937044899112
H           15.97482401711099       30.52208722751362       76.66974718445475
N           13.88545015142445       30.39192109859031       76.34193779966870
C           12.84651148187892       31.07229063944802       76.90791991483336
H           11.83355685178741       30.87856655834945       76.62040809292843
C           13.30383419112461       24.14539776299330       72.13766642363132
H           14.15822731718945       23.81458096463646       71.54836837536195
H           12.40210250935358       23.97993053252923       71.54925682531338
H           13.24733989161801       23.54201823495744       73.03799406292475
N           13.53502004428145       26.57021116107533       71.56153787896865
H           13.52452052361803       26.43488039679062       70.56259281731316
C           13.43853014047058       25.57625126251368       72.49902133228441
C           13.64410240143861       27.74426491042359       72.20759405939152
H           13.73500458016547       28.69629183399975       71.72504804394393
N           13.62301931122351       27.55806978513817       73.50815282800659
C           13.49542955440654       26.21362447194095       73.70590232301899
H           13.45375935804032       25.79851755760289       74.69197372348235

C N H 0
6-31G*
****
Fe 0
TZVP
****


