%nprocs=12
%mem=16GB
%chk=1aee_II_S.chk
# polar def2tzvp empiricaldispersion=gd3bj apfd int=(grid=ultrafine)

1aee_II_S 

0 1
78
 xtb: 6.6.1 (8d0f1dd)
Fe          28.17058739724055       94.03085180245043       53.00840804373912
N           29.09519911902511       95.57807193407579       52.28678862628722
N           29.17865267766470       93.88300084548813       54.63842047935008
N           26.91591830826929       92.47460321371820       53.67945365492486
N           26.95416440050887       94.05310206353690       51.34382080439699
C           28.83382358619488       96.34218433622935       51.20961739262966
C           29.60110731359444       97.56218343424922       51.24309905061604
C           30.31479700517418       97.53066462455914       52.40472527226915
C           29.99638721355803       96.27621116492125       53.05167762460840
C           30.18828144095218       94.74666354308256       54.97891199610026
C           30.81711739381633       94.31156767985139       56.20177804798973
C           30.20944536773584       93.13306762462771       56.56095406430049
C           29.16715274055167       92.90944998292244       55.57621974340655
C           27.17596008776900       91.69708661996742       54.76473519296177
C           26.16751894571545       90.68537350293776       54.92268292441222
C           25.28201059519821       90.85685084357911       53.89414758488432
C           25.81440485318908       91.94137569440363       53.09229589475176
C           25.93599311976578       93.21575313151629       51.01155971419661
C           25.48345283902191       93.46421881621018       49.65497932946894
C           26.22696352365368       94.50337934422261       49.19670632416349
C           27.11328390788982       94.88102875900978       50.27130259659771
C           27.98877923640201       95.94013855173407       50.18441513218765
H           27.94075718351529       96.55568685797209       49.29922663378498
C           30.52374126142765       95.88996156801028       54.27388894137226
H           31.28821598402369       96.52922736414675       54.68938538376465
C           28.26772954759652       91.85784643101812       55.60356390486644
H           28.39046504636563       91.11128916548961       56.37554184084145
C           25.32845955850989       92.30466355245377       51.85024667630223
H           24.45524488040601       91.79696059284366       51.47338202089421
C           31.16092439271209       98.60194071626583       53.00787923432014
H           31.23100629050034       99.46117167912041       52.34453802872088
H           32.17272654251732       98.25222771232693       53.21923468053376
H           30.71609423484849       98.93493939919783       53.94855168696182
C           29.49646324024810       98.65045058771160       50.23043794400482
H           28.45546106198242       98.96477886398652       50.12816063951751
H           29.84423144151000       98.31684093630589       49.25161957155224
H           30.08737556778447       99.51257640370663       50.52773282426757
C           31.81560526619425       95.10285390161377       56.97383696513162
H           31.59534154444820       96.16535315328916       56.88974750126592
H           32.83265771127289       94.93780129912885       56.61935098100044
H           31.77193145931572       94.82005811220201       58.02458677476825
C           30.43727318147049       92.32123431860130       57.72855846843406
H           29.57966602778292       91.75272758753003       58.07068580417410
C           31.57217962682351       92.21952809958778       58.41365448240644
H           32.48759595332800       92.69541864669495       58.10781863153773
H           31.63284866698654       91.61653025687275       59.30127061807453
C           26.10027881463635       89.71082599071585       56.04701446381983
H           26.30318922153509       90.20698889267030       56.99587433477855
H           26.84142826035252       88.92033444558923       55.91977521506809
H           25.11372812467782       89.25692470395776       56.09225679200210
C           24.13366292600136       90.05119587236263       53.51463327274017
H           23.29087833330565       90.57846226921328       53.08792518239945
C           24.10274599630729       88.73269158655539       53.60753647519772
H           24.94456843433741       88.17512040801518       53.98851656043058
H           23.25666667073649       88.15450134002046       53.28210833762779
C           24.50737768133357       92.61584111749124       48.91454184918256
H           23.51573790177608       92.64219809975141       49.36514562750876
H           24.84999839203711       91.58022867953821       48.91073541785966
H           24.41760295227920       92.94760824761610       47.88116115762350
C           26.22337255332372       95.14939950723048       47.85101276722595
H           25.56005362966630       94.62165365688460       47.17058443398023
H           27.22878230464016       95.13873922342067       47.42924667098896
H           25.89328036690736       96.18668599692475       47.91846701098921
O           26.73500000001732       95.52799999999634       53.94800000001854
H           26.98099999999868       96.38999999996551       53.61100000000295
H           26.07800000000905       95.35500000001093       54.52099999999999
C           30.82558908283915       89.94551092265232       50.21140747519639
H           31.35406437801965       90.18708121218580       49.29006451940978
H           29.88456343264939       89.46632768865035       49.95885548090637
H           31.43464626448322       89.24610114774420       50.78224298823552
N           31.51553926329400       91.98613449796818       51.50720108003889
H           32.50572068846559       91.83760325036570       51.40297658329194
C           30.53977803663097       91.16784204943592       51.00160730257943
C           30.90407145497572       92.98532182243621       52.18680642340035
H           31.45532135727771       93.76668801654448       52.66895659936564
N           29.60321334057273       92.84483888222806       52.13555628640299
C           29.35967571137992       91.72372291118492       51.40544357227336
H           28.34853475834745       91.42431139261747       51.22819683990358



--Link1--
%nprocs=12
%mem=16GB
%chk=1aee_II_S.chk
# apfd/def2TZVP empiricaldispersion=GD3BJ int=(grid=ultrafine) geom=check guess=read pop=nbo scf=qc

1aee_II_S_nbo

0 1

--Link2--
%nprocs=12
%mem=16GB
%chk=1aee_II_S.chk
# apfd/def2TZVP empiricaldispersion=GD3BJ int=(grid=ultrafine) geom=check guess=read scrf=(smd,solvent=Chloroform) 

1aee_II_S_solv 

0 1 


