%mem=16GB
%CPU=0-71
%gpucpu=0,1,2,3=0,1,2,3
%chk=1ctj_II_S.chk
# polar def2tzvp apfd int=(grid=ultrafine)

1ctj_II_S 

0 1
Fe          13.24750690669632       46.62547733703325      -16.63995429492599
N           13.27337559975478       46.06635532014553      -14.72669037741104
N           14.15559677805438       48.32879391300609      -16.15781504838769
N           13.28201068032109       47.16631272168136      -18.56611617000744
N           12.31223053830680       44.93552124054395      -17.14341051548875
C           12.83169003260762       44.88528442660277      -14.22024955967316
C           13.02306380888684       44.84442396604847      -12.78693916602467
C           13.57722585933886       46.03766430014011      -12.44198274881363
C           13.71970520997977       46.78916596556856      -13.66910495608503
C           14.38058581043168       48.79964936344510      -14.90380791190281
C           14.90002672011387       50.14906054689647      -14.95194817534314
C           15.07281114721241       50.44265057875930      -16.26824753530629
C           14.59642285541955       49.29260147104107      -17.00560244738850
C           13.99073290704225       48.18876184013880      -19.10560999371584
C           13.90970140948131       48.16411584111550      -20.55168053229842
C           13.09547297304394       47.10778952419970      -20.86599435804847
C           12.73882870684149       46.48949471680677      -19.61516545435961
C           11.80396090111975       44.60318076857571      -18.35825936053416
C           11.17636572564927       43.29646902880936      -18.31256211782644
C           11.32728728616426       42.85320479567486      -17.02491450548811
C           12.01322136951208       43.89978240288509      -16.31304051501188
C           12.28011368773871       43.85490319554543      -14.95515589414269
H           11.98117338699231       42.96741007885117      -14.41860369275143
C           14.18884239386341       48.08868074744613      -13.73426653601103
H           14.44987706132122       48.57301924260578      -12.80569656044809
C           14.58735838349435       49.20796909679706      -18.38460568397398
H           15.03902876476966       50.01683083925020      -18.93856520997101
C           11.96870205169766       45.34188309130722      -19.51440810488547
H           11.52172431189583       44.96165377763457      -20.42025961056346
C           12.65162531451191       43.68942947855553      -11.92123761713551
H           13.17352110661646       42.78686449702933      -12.24035966918389
H           11.57976552219040       43.49683546871019      -11.97729964101849
H           12.90900178940489       43.88540541231662      -10.88323626317148
C           13.97375562918937       46.54245071356518      -11.09697264820075
H           13.38765806496093       47.42284980460813      -10.83194819626464
H           15.02721126685020       46.82307278980004      -11.08630774079609
H           13.81337824692504       45.78328473981528      -10.33528062393726
C           10.93785617552974       41.53716769996420      -16.44808341224428
H           11.69955433218793       41.18015592813349      -15.75644515694769
H           10.81635737784030       40.80316772110357      -17.24218309953639
H            9.99531430368180       41.61310793434733      -15.90285745096731
C           10.55467141420123       42.63829438568870      -19.43986332156633
H           10.99112618665004       42.85236659455376      -20.40873049712825
C            9.50862086527446       41.82063183859385      -19.37578823468065
H            9.00221468303832       41.60765808781334      -18.45061284537826
H            9.10474417489413       41.35356916774592      -20.25873423750326
C           12.71817319582885       46.59876431219231      -22.21370630700920
H           11.72357038886606       46.94804891292931      -22.49710915422756
H           12.70924673291842       45.50995819348323      -22.22881750691216
H           13.42973702704552       46.95024664719454      -22.95812980035964
C           14.58234274228617       49.09958621965490      -21.42499960440022
H           15.53963972818296       49.46196476006767      -21.06776778121002
C           14.12097862656994       49.53759539539485      -22.59202080729247
H           13.15645787969328       49.24886425025851      -22.97150857313391
H           14.68542644746992       50.22623254854336      -23.19876769612424
C           15.59359932772286       51.68790724567896      -16.89957851052810
H           14.83054964922534       52.14592097721288      -17.52944946727682
H           16.45912169758614       51.46760752511211      -17.52493539075486
H           15.89320650618463       52.40911717867438      -16.14316139678237
C           15.20244337094862       50.97678769399759      -13.75030003880424
H           15.52582371813028       51.97390511535145      -14.03882704781796
H           15.99329768413201       50.51932718873031      -13.15434468963418
H           14.31719677855751       51.07030859579507      -13.12176205366652
C           17.52745903026929       43.58094787611481      -18.49651811244081
H           18.41570933543418       44.10527939884540      -18.84867771865039
H           16.98345375595043       43.20188147810142      -19.35593535234620
H           17.84930036067789       42.73660034086704      -17.88686984405154
N           17.07758697439023       45.12979418623997      -16.58053059871394
H           17.99425805235272       45.05329907111145      -16.17123250156933
C           16.65200910267733       44.49150579498325      -17.71612860186416
C           16.04787888975893       45.87368002782106      -16.11790864613962
H           16.09026588526969       46.48339759855256      -15.23938385298171
N           14.99783220079571       45.74454899570941      -16.89091489730865
C           15.35710455398401       44.88877095802595      -17.88906240134479
H           14.66544970162097       44.61790006956097      -18.65951106634840
C           10.94472530530827       49.72601965874801      -18.06772089592480
H           10.73498367056063       50.43398295235335      -17.26935696276499
H           10.49441229291689       50.08959851972975      -18.98927765857933
H           12.02104171206603       49.66923163843047      -18.20431555414481
C           10.38968795714267       48.35910120902600      -17.71962546563737
H           10.58659556389830       47.63880509573266      -18.51253489726927
H            9.31829804672656       48.41169707142282      -17.52333773066276
S           11.17855396487424       47.73469006868697      -16.18140396799697
C            9.94958926452227       46.45624621913785      -15.77764414545846
H            9.81769111478953       45.78823890624604      -16.62285089493459
H            9.01104249068786       46.93769348468836      -15.51526845019518
H           10.33823955002857       45.90352421856401      -14.92920626524335


--Link1--
%mem=16GB
%CPU=0-71
%gpucpu=0,1,2,3=0,1,2,3
%oldchk=1ctj_II_S.chk
%chk=1ctj_II_Sn.chk
# apfd/def2TZVP int=(grid=ultrafine) geom=check guess=read pop=nbo scf=qc

1ctj_II_S_nbo

0 1


