%nprocs=12
%mem=16GB
%chk=1a6m_II_S.chk
# polar def2tzvp empiricaldispersion=gd3bj apfd int=(grid=ultrafine)

1a6m_II_S 

0 1
77
 xtb: 6.6.1 (8d0f1dd)
Fe          14.53930069601246       28.02487087809610        4.73964975323282
N           14.86749685944316       29.29256778672023        6.27712386296229
N           13.66446488820063       26.70182952039982        6.03162930589884
N           14.31763007032053       26.64245818898117        3.26638154857646
N           15.43601513894166       29.28149226265821        3.47971027745926
C           15.43665148930506       30.52172883913168        6.18843628875722
C           15.46439733804686       31.15350761199825        7.49054485198555
C           14.88646695074666       30.27630757389057        8.35589476190798
C           14.48381177162663       29.13088839007298        7.56757314050134
C           13.43668561372570       26.91191747161654        7.35497724724414
C           12.77434536946555       25.77341170882413        7.94060238790596
C           12.61312170753547       24.86036501293539        6.93264732289914
C           13.17421393935223       25.47004359395309        5.74285914217016
C           13.81722086984567       25.38533044453855        3.37258305276278
C           14.04124738284201       24.64688165712172        2.15442184128108
C           14.70334324648926       25.49453479671689        1.30686019209018
C           14.84456843919638       26.74921891646609        2.02149719349248
C           15.71163759030702       29.04916256398204        2.17243789004599
C           16.40900798113053       30.18065669138884        1.60002048765162
C           16.58907616952364       31.07228562466391        2.61208478599943
C           15.97833872226411       30.48666245458441        3.78696534281829
C           15.96428968185645       31.08222597984721        5.03684638611043
H           16.42195829153276       32.05606440624928        5.12502705254137
C           13.80779426886797       28.03723370212295        8.07405154670762
H           13.57350640688611       28.04809003462387        9.12790727212616
C           13.23544365610454       24.84812285277618        4.50900490750034
H           12.85971414378966       23.83844608198499        4.44190816705848
C           15.44726456040531       27.87617229416454        1.48986160899779
H           15.79553211874797       27.81553369664369        0.47021260931776
C           14.67168613113003       30.40094842926823        9.82525707117199
H           15.06486012693475       31.34449706196673       10.19475010176500
H           15.17627127401849       29.59028266581043       10.35024656711271
H           13.60985724275729       30.35199709959974       10.06855873452244
C           16.06207131814377       32.49091012637622        7.76152930129796
H           15.61187473086003       33.24989921189226        7.12221689311538
H           17.13368227067968       32.47339585468140        7.56313423225384
H           15.91087355980885       32.78042669672678        8.79837765087974
C           12.31709173532602       25.68408319259544        9.35474887334084
H           11.87848358873408       26.62724090227596        9.67829357856392
H           13.15232952114024       25.45562179186988       10.01757140714195
H           11.57110224187022       24.89901255228184        9.45724702904198
C           12.00070507530711       23.54880906274898        6.97682037871891
H           11.44895025612101       23.25942389518022        6.08983345777458
C           12.07946920444744       22.70180510940819        7.99702548389584
H           12.65743416978564       22.92150911959626        8.87772487570150
H           11.59181524782962       21.74155940504701        7.97204105289426
C           13.57599759564600       23.25605096572211        1.90385864331539
H           12.55383664150168       23.12498734127234        2.25679716289752
H           14.20798835917437       22.53767990313610        2.42621919682988
H           13.60932221465536       23.03673099097221        0.83946574187384
C           15.16646742355287       25.25933036811239       -0.04446120533064
H           15.09880738670637       26.10537101994245       -0.71870470666789
C           15.66513096305756       24.11395648864224       -0.49575668863961
H           15.80517267193576       23.25949647977711        0.14268605764515
H           15.98411052355281       24.00420878197974       -1.51894474913746
C           16.84568140349802       30.26189986229875        0.17827705740084
H           15.99562040436607       30.13150396552633       -0.49156198938491
H           17.57290156158197       29.47981681863251       -0.03929141292131
H           17.30500729894293       31.22437932373364       -0.03202537356175
C           17.26647419846843       32.39873380490865        2.59069129519525
H           16.57628190508816       33.18698895216360        2.89245790448378
H           17.63625513274354       32.62759946377872        1.59454988035992
H           18.11074831087822       32.40545433464870        3.27948525103433
C            9.43484289307569       29.46540088725387        2.35710747201106
H            9.15716352291723       30.51546141268326        2.26122379631949
H            8.56109920364939       28.91180019745510        2.70139748776730
H            9.72143167680350       29.09087877643537        1.37879815276220
N           10.47638361279771       29.64625787621481        4.62938581788313
H            9.66100494402658       30.02569998401431        5.08377985141532
C           10.56662727041586       29.30352931823012        3.30317754656493
C           11.66761981680516       29.37626091252565        5.20346354583509
H           11.89087448509732       29.53968255055490        6.23845508317111
N           12.50613761562908       28.88740024482675        4.32700317668634
C           11.83981238454544       28.83549907219520        3.13977925408695
H           12.31998532695904       28.46463139992913        2.25712747563864
O           16.01743722132572       27.33794263442524        5.16440562665396
O           16.85767297884873       27.01893265645025        4.25405672941514



--Link1--
%nprocs=12
%mem=16GB
%chk=1a6m_II_S.chk
# apfd/def2TZVP empiricaldispersion=GD3BJ int=(grid=ultrafine) geom=check guess=read pop=nbo scf=qc

1a6m_II_S_nbo

0 1

--Link2--
%nprocs=12
%mem=16GB
%chk=1a6m_II_S.chk
# apfd/def2TZVP empiricaldispersion=GD3BJ int=(grid=ultrafine) geom=check guess=read scrf=(smd,solvent=Chloroform) 

1a6m_II_S_solv 

0 1 


