%nprocs=12
%mem=16GB
%chk=1aed_II_S.chk
# polar def2tzvp empiricaldispersion=gd3bj apfd int=(grid=ultrafine)

1aed_II_S 

0 1
78
 xtb: 6.6.1 (8d0f1dd)
Fe          28.44027616920586       93.82235616413553       52.88717779913911
N           29.48490003844220       95.40627595957649       52.28376481793268
N           29.50874536362613       93.74811476268307       54.58264276333222
N           27.39658552162599       92.22487345877065       53.53739409839114
N           27.36676354402486       93.83184373264851       51.22545988396321
C           29.21414508526588       96.15913002498213       51.18619791817099
C           29.99922989917447       97.37298047824872       51.19022736847377
C           30.70602566131113       97.36518529453741       52.35314827379893
C           30.34302750689363       96.14569389636257       53.03937294476899
C           30.43768246470736       94.65796373676956       54.98750705789224
C           31.04735237248614       94.25514272653645       56.22890066608346
C           30.50575874133903       93.03706523594509       56.54423821610599
C           29.52130118632283       92.76239224301187       55.51494063486520
C           27.67299637675332       91.43852825121581       54.61466784061291
C           26.73085719730297       90.35513092436122       54.72091561470360
C           25.87471116865209       90.48656503525035       53.65976814690146
C           26.35876753092879       91.62155207631533       52.89954419393567
C           26.38934204345754       92.96635734313595       50.85541041111094
C           25.96634600633985       93.22079487303448       49.49578140500642
C           26.65742723716431       94.31647337960085       49.08299302893587
C           27.50914316380690       94.70138677711498       50.18872484419344
C           28.34112063394555       95.80388030203072       50.17183075271039
H           28.28644782748746       96.45316930907207       49.31075882891492
C           30.80364880748602       95.80005082040047       54.29453596655004
H           31.51410807217184       96.46287253557038       54.76432536364239
C           28.69260528206578       91.66029478481850       55.52285775563747
H           28.82718061083362       90.93021305759095       56.30538803545836
C           25.86756576266229       91.96575218992101       51.65363157562542
H           25.06559575484577       91.36929975746990       51.24677944778592
C           31.66361023127756       98.37455943943959       52.88895984848308
H           31.29365635502829       98.79648769393899       53.82413189211432
H           31.80777371529221       99.18781339947908       52.18194946054075
H           32.63279599915754       97.91623344137190       53.08688118188248
C           29.96405440941261       98.40724144817115       50.11756108083596
H           28.96266898182844       98.82809811833793       50.02533899246792
H           30.23762070359022       97.97521463286816       49.15489592591359
H           30.65534928785177       99.21703775582156       50.33884840710618
C           32.04572497961615       95.05178701351905       56.99380635644300
H           31.79029013660041       96.11040885842057       56.97583011868144
H           33.04434113806397       94.93822904423017       56.56780740919910
H           32.07349177953301       94.71808447311980       58.02863890195872
C           30.76266775386769       92.19029132164016       57.68705962189208
H           29.91464457860491       91.62069982641941       58.04896505806292
C           31.93210124797889       92.05320335635210       58.30470357482341
H           32.82423763067536       92.55061805873576       57.96768055719281
H           32.04093406668793       91.41034746704477       59.16219956656002
C           26.68083783000597       89.37902296202799       55.84494072947497
H           26.88073466146932       89.87628455295956       56.79352728440387
H           27.42785580897194       88.59412866576213       55.71110848965893
H           25.69789382846735       88.91487812675732       55.89704540073047
C           24.73019818248310       89.68330946529923       53.28883974298809
H           23.91462574689323       90.22121824854109       52.81702505487063
C           24.62023618870838       88.37183275463417       53.47230798756419
H           25.41970372876010       87.78634725914732       53.89393695829912
H           23.73295990967127       87.83244163433203       53.18499364774770
C           24.94548126885158       92.41061514891848       48.77350532038708
H           23.97824375752054       92.48291818567529       49.27103771654358
H           25.23506512361453       91.36010216766680       48.75209721608552
H           24.82884115458867       92.75544458940858       47.74906092309061
C           26.59094493414873       95.03345241482756       47.77862809515474
H           25.93305462407093       94.51361276065229       47.08621724486520
H           27.57921396370507       95.10730352937104       47.32602116780858
H           26.20754389737968       96.04415144058346       47.92088344847230
O           26.91999999999262       95.14800000000088       53.86999999999872
H           26.17999999999822       94.60199999999514       54.13500000000477
H           27.00200000000087       96.02399999999915       54.00199999999904
C           31.02989795957102       89.71372543421275       50.12106531126494
H           31.59889333611833       89.96673177650125       49.22592181010645
H           30.10796895440962       89.22427323589950       49.82176331817237
H           31.61949115617139       89.01473374409318       50.71457109013149
N           31.68688379576172       91.78962213628074       51.35453156156166
H           32.67671331090934       91.68393256603098       51.20432198064097
C           30.71470520803028       90.93463332828547       50.90543459933755
C           31.07461106112080       92.79063588960565       52.02549664507979
H           31.58927133013014       93.60751639912110       52.48839848135371
N           29.77465967776062       92.62121600188996       52.02858091930602
C           29.53514215511644       91.47131746762635       51.33623618832845
H           28.53863804443339       91.10907596320241       51.19531635825283



--Link1--
%nprocs=12
%mem=16GB
%chk=1aed_II_S.chk
# apfd/def2TZVP empiricaldispersion=GD3BJ int=(grid=ultrafine) geom=check guess=read pop=nbo scf=qc

1aed_II_S_nbo

0 1

--Link2--
%nprocs=12
%mem=16GB
%chk=1aed_II_S.chk
# apfd/def2TZVP empiricaldispersion=GD3BJ int=(grid=ultrafine) geom=check guess=read scrf=(smd,solvent=Chloroform) 

1aed_II_S_solv 

0 1 


