%mem=16GB
%CPU=0-71
%gpucpu=0,1,2,3=0,1,2,3
%chk=1aom_12_opt.chk
# opt apfd/gen scf=maxcycle=999

1aom_12_opt

1 2
Fe          13.75771903946922       28.96755248395059       74.90694648151721
N           15.27229120913688       29.82736928988005       73.90896497332366
N           12.45255538788529       30.09622667806575       73.88644216644983
N           12.24186866517526       28.10680000771614       75.89769545782461
N           15.07118454283273       27.84326583919340       75.93014761415976
C           16.59308007984998       29.50702386239947       73.99647706839903
C           17.37612160244978       30.34447429723954       73.11640202478232
C           16.49684949300951       31.18909961665816       72.50741765741365
C           15.18633475801584       30.84389130121879       73.00945979931475
C           12.74419709425392       31.08374041164054       72.99689180108847
C           11.53084876940286       31.68019461738242       72.48616923790182
C           10.49823115806124       31.01743832623749       73.07930561342830
C           11.09519671059165       30.03607733751838       73.95688208038395
C           10.91497149915253       28.30118845524153       75.68443415104478
C           10.13160814730939       27.50507234621344       76.60606946647667
C           11.03355670558144       26.82562053666258       77.38533031206229
C           12.34117255750293       27.21322823613660       76.92128989954132
C           14.78860348464069       26.98893320681631       76.94894185816416
C           16.00373209340891       26.38089751105972       77.45094931195376
C           17.02419016285706       26.87423025574475       76.67760492598691
C           16.41956806627796       27.79186053260269       75.74688295802719
C           17.13320415807654       28.55061439806104       74.83406744493719
H           18.20226292249644       28.41040071261888       74.79965343564626
C           14.01471339816973       31.44957074936988       72.59279310025323
H           14.09718904206894       32.25126039645922       71.87577407641652
C           10.37033769421412       29.19029437262114       74.77519873680426
H            9.29476722307263       29.25797992120837       74.72783203299659
C           13.52472896405133       26.71237439691933       77.43519899376547
H           13.45172498864763       26.02960250632452       78.26708342326668
C           18.85283542855127       30.25058969323740       72.96233519891217
H           19.14090789630767       29.24987282246937       72.64209097596783
H           19.35233997100591       30.45926045278525       73.90818949196607
H           19.20993324076160       30.96219027662415       72.22355792962072
C           16.75798436633743       32.26488068995375       71.51362700953125
H           16.39352942647576       33.22287690095138       71.88283127941938
H           16.25089260217727       32.05071406154534       70.57306278776842
H           17.82176128500762       32.35703266037071       71.31466130315123
C           18.46706158045482       26.52010617945080       76.71556218200752
H           19.03731790538954       27.26704111880509       77.26935153921971
H           18.87684576768809       26.46138891474205       75.70904708104804
H           18.60086843589122       25.55769133711536       77.20390364474872
C           16.06173924458866       25.41985629147327       78.53198387895848
H           15.20975006719481       24.75710723027478       78.61818506728524
C           17.05894866877467       25.30963487108906       79.40294158454149
H           17.90589391823989       25.97298790791431       79.39380829650568
H           17.04456762845772       24.56409028025542       80.17903111511383
C           10.76356289777903       25.82481911460360       78.45002626897796
H           10.86084788991820       26.27549045908385       79.43838673159183
H           11.46455755706541       24.99446702656265       78.38906202769665
H            9.75324522507062       25.43580326295245       78.34809970537381
C            8.68465418457815       27.46303078961224       76.63275539845012
H            8.19639838315041       27.55900235095999       75.67077098084215
C            7.94461444393377       27.32620490462957       77.72755616312462
H            8.37837371740752       27.27631676987020       78.71091032679232
H            6.87010072954899       27.28993669333082       77.67653549904706
C            9.03322368323213       31.21519374071981       72.91553803654014
H            8.57755474257518       31.50400892135353       73.86239317752631
H            8.55791659916556       30.29434487504683       72.57916568913662
H            8.82737820585385       31.99298875205743       72.18589267840802
C           11.49362505013713       32.79373668893902       71.50047062068053
H           10.46980726092167       33.08949685266064       71.29084686600871
H           11.96222250616942       32.49383701043797       70.56331864423855
H           12.02983394190841       33.66117795815256       71.88368254851579
C           12.63951125508446       32.91416448336585       78.72709979855631
H           12.96854054196569       33.93220815748017       78.52181980050156
H           12.85838212959942       32.69147481084088       79.77078684810959
H           11.56605407459707       32.85836206131558       78.57713181249758
N           14.68384711821925       31.80305489137916       77.80445027324481
H           15.33932797780425       32.31562793936476       78.37330937864992
C           13.32270081305442       31.95124958945733       77.83104380401943
C           14.98175744451213       30.85888407234880       76.89333476273919
H           15.97651349630625       30.53686889682230       76.66088470476899
N           13.88805474774849       30.39371638641973       76.33427779942525
C           12.84670061855736       31.06417712904943       76.90761422836201
H           11.83402333531981       30.86741171777827       76.62233104007281
C           13.34059340054513       24.11462725993766       72.13240741702802
H           14.19497310282978       23.78716690178808       71.54117034172130
H           12.43739300658980       23.93671012560128       71.54981601241319
H           13.29401851619427       23.51716998235801       73.03726347884248
N           13.55321007532037       26.53689663903051       71.53853047050235
H           13.54370689745865       26.39451120582469       70.54071882625441
C           13.46438895386063       25.54937336329191       72.48318562622639
C           13.65373093952792       27.71653446680735       72.17794177511770
H           13.73768292392672       28.66461516340256       71.68665488023458
N           13.63425438265873       27.54063283867771       73.47936886874031
C           13.51676902665472       26.19658891925578       73.68507499481511
H           13.47796115224663       25.78651253519588       74.67289522509010

C N H 0
6-31G*
****
Fe 0
TZVP
****


