%mem=16GB
%CPU=0-71
%gpucpu=0,1,2,3=0,1,2,3
%chk=1cxy_01_opt.chk
# opt polar def2tzvp uapfd int=(grid=ultrafine)

1cxy_01_opt

0 1
Fe          29.06786645309507       25.21074234416816       13.23104134778421
N           27.64603774680087       25.83670620747683       11.95895129150921
N           30.25851223279101       26.70407488456684       12.63088230757829
N           30.48039468702214       24.60044949502208       14.51584281235854
N           27.88044395886836       23.69871968052227       13.80862548344808
C           26.41072128383116       25.29611593312007       11.77958814501958
C           25.66488384339009       26.04237943346115       10.79008428896434
C           26.48478526334245       27.04376940710399       10.37213876252663
C           27.71697857073398       26.89773808889563       11.11575954304381
C           29.98660705636656       27.63484893575284       11.68111038740123
C           31.10633887827421       28.53651201195861       11.51360509163983
C           32.05962094832676       28.12871111894788       12.39283586918880
C           31.50920520145187       26.98149374680652       13.08233315755939
C           31.68696586130664       25.17723148540590       14.73877928498211
C           32.39743791026591       24.48784523234111       15.79935497580118
C           31.57711611566160       23.46476914991900       16.19719572228926
C           30.39359110081606       23.55356595934954       15.38015983704876
C           28.18642156592527       22.71949457590542       14.69745322573445
C           27.09109090633670       21.77636041658528       14.81312529078095
C           26.10056300278414       22.24736980021861       13.99290203479102
C           26.62205089019780       23.43226841897668       13.36567014806837
C           25.92151769155417       24.17946911859782       12.43076806599054
H           24.92009388692977       23.85654424129018       12.18644324487677
C           28.80618983599282       27.73692820555132       10.97022351239739
H           28.72546692545608       28.53710424798597       10.24994996261656
C           32.17936777022821       26.28693287081015       14.07307701501079
H           33.16011606181358       26.64346701355403       14.35078722636109
C           29.33175495171146       22.67101523588708       15.46822669713145
H           29.39157214883056       21.88978275378232       16.21006313964349
C           24.27457080520015       25.71634945819471       10.36018766768596
H           23.59107698276958       25.74873922986955       11.20938649095207
H           24.22892406023619       24.71519981804652        9.92996087209069
H           23.92441364894100       26.42472768289811        9.61327749880543
C           26.23205498946720       28.11000681483341        9.36145834120036
H           26.95678466994039       28.04753872800366        8.54924123869663
H           26.31969014772371       29.09720666755375        9.81593262890022
H           25.23481036491506       28.01532014141418        8.93808414484675
C           24.76025251718049       21.65288183181390       13.72352378616242
H           24.68442825143199       21.32474747939218       12.68583744052722
H           23.97076872635352       22.38380005183686       13.90230668742008
H           24.58812644507965       20.79166332480529       14.36432123695656
C           27.05083860624515       20.57275198170190       15.61730771347806
H           26.09233477144748       20.35265725382015       16.07635063404675
C           28.05696390446954       19.72313043463150       15.79183552958042
H           29.01207921895032       19.86494130498015       15.31511883400255
H           27.95167569339711       18.84080318726804       16.40158513739226
C           31.84670287396400       22.40409655564672       17.20700178438237
H           31.46002235909621       21.44339249727973       16.87060862024721
H           31.36955948823779       22.64289164861855       18.15908686998577
H           32.91807388061299       22.30973744529024       17.37363706665405
C           33.71571441670176       24.84240233765766       16.27453553426468
H           34.38453928988231       25.26190705293544       15.53126508385359
C           34.15234901988394       24.70451138920431       17.52277631716129
H           33.52074610352652       24.34009801016931       18.31389870257058
H           35.15667457587089       24.97801123256231       17.80183810063085
C           33.41486511516014       28.69476169051826       12.64916532580305
H           34.18603030634624       27.94801118231710       12.45713583141120
H           33.50731265445219       29.01551869711674       13.68732141255698
H           33.60351427973614       29.55293508443436       12.00860275981882
C           31.13642831446081       29.67125847704802       10.54741925577666
H           32.08731954038386       30.19662229243490       10.59580056567411
H           30.34002868474981       30.38296235053309       10.76710346278618
H           30.99505742723384       29.31063692368768        9.52820716488256
C           28.28620153418941       28.82435539688713       17.43768740518150
H           27.91231167239367       28.43407937332531       18.38432097244311
H           27.76082931242373       29.75472391940351       17.22129021335824
H           29.34494365734489       29.03911146406789       17.54394857155317
N           26.84855856276798       27.37035480007472       15.99083895351350
H           25.97568555793883       27.63358291657211       16.41782286754088
C           28.08728021962908       27.83867781949989       16.34502452936001
C           27.01796351120599       26.49628862453943       14.97312085361130
H           26.21752606353014       25.97278679810275       14.49259187577305
N           28.28519280529865       26.38305962485931       14.66169734030774
C           28.96301774940449       27.21201023044555       15.50588552754380
H           30.02817263658232       27.30164055450829       15.45485275579542
C           32.46695408326669       22.44575721561288        9.74694912111226
H           32.41699252130955       22.68375805538648        8.68430711339316
H           32.53020922248035       21.36247305428882        9.85087701334002
H           33.36794780765274       22.88785834055757       10.16058195192452
N           29.99984653659693       22.59580772348553       10.15180948396117
H           29.73923225189208       21.94034638571335        9.43350338103547
C           31.27938953806106       22.97642745527452       10.46339992632403
C           29.16305932518490       23.25649771283009       10.98352096023633
H           28.09768468785656       23.15415263335631       10.96791315586340
N           29.83302993443681       24.03050730419123       11.80062710137030
C           31.15045364470203       23.86752187527241       11.48966631275758
H           31.91207227966534       24.39859044924747       12.02166499992454

--Link1--
%mem=16GB
%CPU=0-71
%gpucpu=0,1,2,3=0,1,2,3
%oldchk=1cxy_01_opt.chk
%chk=1cxy_01_nbo.chk
# uapfd/def2TZVP int=(grid=ultrafine) geom=check guess=read pop=nbo scf=qc

1cxy_01_nbo

0 1
