%nprocs=12
%mem=16GB
%chk=1a2f_II_S.chk
# polar def2tzvp empiricaldispersion=gd3bj apfd int=(grid=ultrafine)

1a2f_II_S 

0 1
78
 xtb: 6.6.1 (8d0f1dd)
Fe          -5.96653456415549       57.05783446714391      111.79328197370400
N           -6.65006350690258       56.15438538982993      113.44548923888114
N           -6.90948736463505       58.74440469367645      112.31527792209042
N           -5.05104929727138       58.03061854024077      110.29646341193315
N           -4.90558333798680       55.41618349460134      111.34739192959945
C           -6.41350367317959       54.87492475301533      113.83994466221016
C           -7.03586772512612       54.61074267446266      115.11675301563500
C           -7.67362671910374       55.75809877625404      115.47720955774803
C           -7.41040758354584       56.71593615671296      114.42710291472665
C           -7.61643935949970       58.96572635464690      113.45882163616895
C           -8.12362747538021       60.31276125589332      113.49862874184537
C           -7.66076517921249       60.93018545518796      112.36666355531425
C           -6.84612982732529       59.94390481348556      111.68075070084066
C           -5.21746123789036       59.33633349222527      109.94989416782049
C           -4.35538520883960       59.69296296660779      108.85130315400734
C           -3.63613391524782       58.56750235956977      108.54867359274569
C           -4.11958949997186       57.53401173949462      109.44387169414352
C           -4.13195537391428       55.22200572870509      110.24804520888860
C           -3.80816310315736       53.82108072125920      110.08707887951142
C           -4.34429697734709       53.18256783192165      111.16094415489903
C           -5.02404838325429       54.19688827148848      111.93765130496675
C           -5.69558859390057       53.93898821003114      113.11744162366763
H           -5.64785352279746       52.93514638319579      113.51137548517153
C           -7.86301158560647       58.02138635752064      114.44210755722766
H           -8.45329796653767       58.32910791052714      115.29194639892654
C           -6.08841344921534       60.22052281014050      110.56068783601624
H           -6.14681824897359       61.21783005671724      110.15271001779527
C           -3.70797486873971       56.21563477380408      109.38595160620794
H           -3.02968708620765       55.93532660481267      108.59425371239701
C           -8.47073492933890       56.05006541564070      116.70267843891229
H           -8.53708340970918       55.17119975962110      117.33925776303393
H           -9.48241583576385       56.35894144675370      116.43859347323131
H           -8.01199821551193       56.85543546178948      117.27746660629276
C           -6.95925813965420       53.30733185176169      115.83548023703825
H           -5.92055962903171       53.03318533830330      116.02060362143796
H           -7.41627074630442       52.51460367376828      115.24245176510682
H           -7.47497727622556       53.36050532342399      116.79122930849624
C           -8.91924856405876       60.89941674581288      114.61262078616197
H           -8.56508898635368       60.53191552152694      115.57468889658682
H           -9.97484497566421       60.63788383457310      114.51978775002560
H           -8.83261947252078       61.98405503566246      114.60156109532939
C           -7.86355713078873       62.29194104823069      111.92671254540332
H           -7.03643670326734       62.74268241022911      111.39082843663724
C           -8.96857268461366       63.00623871639156      112.11709919172661
H           -9.04847661861660       64.02339047581043      111.77082267848832
H           -9.84002419453766       62.59734357349094      112.59817285121355
C           -4.22320113992645       61.05824389667993      108.27148999935106
H           -4.29678542233870       61.81761106844971      109.04860744018356
H           -5.01078774647532       61.24683542284210      107.53999348226202
H           -3.26063517799583       61.16138864561331      107.77452712803355
C           -2.60220628397862       58.37507308560061      107.55584872597814
H           -1.82097887971389       57.67430790677140      107.82790282472688
C           -2.54730453052651       58.97296415522168      106.36997506178665
H           -3.31942747416982       59.64017637803899      106.02860498124362
H           -1.73529377018133       58.79257270034839      105.68498492333465
C           -3.00374266993725       53.26805398783686      108.96095349242671
H           -1.98907674158726       53.66737340866629      108.98206049070689
H           -3.45068352712223       53.53445738053048      108.00313385075857
H           -2.94495940762170       52.18409169289798      109.02294220527347
C           -4.30384721764862       51.73600289414363      111.51743286000756
H           -3.74559451725021       51.17016801796000      110.77565198216553
H           -5.31245280844020       51.32628243245200      111.57628852401483
H           -3.82489518956745       51.59448397795345      112.48658915623079
O           -4.27099999998486       57.67599999999053      113.19400000000863
H           -4.55200000001949       57.26900000000997      114.01400000000524
H           -3.56700000003961       58.20799999994603      113.08500000001526
C           -9.22898647404942       55.00918706820539      107.76930248299605
H           -8.40167732300842       54.80956642371041      107.09566711641550
H           -9.92395145347690       55.68913559735007      107.27666418323929
H           -9.75119595201343       54.07353749058358      107.96865171193468
N           -9.53145705586435       55.93729855547915      110.07500043542795
H          -10.53165740383344       55.82484650221631      110.09774802555793
C           -8.71247138069168       55.60286493200967      109.02857059457293
C           -8.75356323309327       56.44505003991419      111.05803056136700
H           -9.12216096041762       56.79245599431686      112.00101095821293
N           -7.49263001588320       56.45139462759622      110.69761012874685
C           -7.45136136786889       55.93164005483668      109.43692003038215
H           -6.52333510630424       55.82971998863054      108.91293286638634



--Link1--
%nprocs=12
%mem=16GB
%chk=1a2f_II_S.chk
# apfd/def2TZVP empiricaldispersion=GD3BJ int=(grid=ultrafine) geom=check guess=read pop=nbo scf=qc

1a2f_II_S_nbo

0 1

--Link2--
%nprocs=12
%mem=16GB
%chk=1a2f_II_S.chk
# apfd/def2TZVP empiricaldispersion=GD3BJ int=(grid=ultrafine) geom=check guess=read scrf=(smd,solvent=Chloroform) 

1a2f_II_S_solv 

0 1 


