%mem=16GB
%CPU=0-71
%gpucpu=0,1,2,3=0,1,2,3
%chk=1cyf_II_S.chk
# polar def2tzvp apfd int=(grid=ultrafine)

1cyf_II_S 

0 1
Fe          36.50324598234657       28.66372077897533        7.03418368279314
N           36.39487898011814       29.18334616865164        8.96324480215264
N           34.72030484480464       29.58674867831308        6.69772198038119
N           36.59476804408786       28.18817706148294        5.08861814450041
N           38.34851676434511       27.92988995032467        7.36043617749082
C           37.15102810091821       28.65747297766454        9.96756464316589
C           36.68621731956807       29.12144422312879       11.25362982665974
C           35.53207755233972       29.80086457207886       11.01516220650069
C           35.30830483059151       29.72992915162395        9.58734207325140
C           33.95014019417585       30.23240403162011        7.61807777575302
C           32.82808758478506       30.87927120353912        6.98570371675834
C           32.95615487345924       30.64041756106620        5.64384448927889
C           34.20029607981211       29.90761480180493        5.48674763314896
C           35.73706119710010       28.57455731090450        4.10535856917340
C           36.34963425483536       28.40617884488017        2.80748558770642
C           37.51558583954162       27.72245304964310        3.02284918779648
C           37.62047611420570       27.55115018874628        4.46414773665962
C           39.04113568150825       27.19937284011566        6.44925099103444
C           40.03254405710729       26.36981052041944        7.10102790104754
C           39.99140507386837       26.69716506382885        8.41948505878951
C           38.90071886427531       27.63639460621546        8.57196386487786
C           38.31399139614028       27.92922366530604        9.78999045148078
H           38.82039717774477       27.58356420252405       10.67907093070803
C           34.26856290194065       30.38774571290556        8.95692722725741
H           33.55700464527659       30.90491030555253        9.58278282567256
C           34.60644991666582       29.35671192166310        4.28651288092737
H           34.04482886890928       29.62090107495658        3.40345677031813
C           38.77572900115295       27.11902992947422        5.09113641829260
H           39.48661210028688       26.56976870228794        4.49080843325179
C           34.61846302008212       30.47618448863113       11.98061157665837
H           34.53512433818032       31.53937875446237       11.75305443743086
H           34.98765475944553       30.37341688281615       12.99805177633643
H           33.61934653142563       30.04209919488433       11.93324353231933
C           37.37247040946956       28.84836727916363       12.54805178501662
H           38.38822607601679       29.24364222179567       12.53322889540355
H           37.43100402805739       27.77538397664546       12.73305050395918
H           36.83773131587202       29.30977825862387       13.37478096987659
C           31.78300050284101       31.67476304281418        7.68782960523107
H           32.22451473476423       32.28155874208155        8.47695980240663
H           31.03522487714451       31.02275028134275        8.14273080662203
H           31.28072798781097       32.33397182108387        6.98294652077818
C           32.11557225322760       31.07809158358847        4.55275622451557
H           32.63202661077042       31.31824503012121        3.63039670231013
C           30.79168118147012       31.19096917249919        4.59653613213893
H           30.22251153786657       30.92047838895450        5.46885644366571
H           30.22679965578557       31.53490610889126        3.74601691514589
C           35.79847228323820       28.90870751980879        1.51900092053133
H           35.35455869527554       29.89506106631445        1.64565087604422
H           35.02739644155540       28.23814838064379        1.13597849935667
H           36.59271508206867       28.97880772007810        0.77874385822130
C           38.51132624820345       27.28394157420484        2.06843335056281
H           39.53609705204465       27.29183638257066        2.42082189592763
C           38.26280983613605       26.87223906926341        0.82932531007857
H           37.26323728216272       26.79677505881261        0.43839397215560
H           39.05732821763466       26.56950183618705        0.16718364702045
C           40.93509857829590       25.41516080812691        6.39691290661622
H           41.56431374288356       25.93823148558493        5.67596327253853
H           40.35483903987434       24.66662906034476        5.85696825094838
H           41.58006323475209       24.90112133400680        7.10542179120335
C           40.80353758288807       26.16344514822272        9.55006181760351
H           41.65775136799702       25.60067995598333        9.18087437929461
H           40.20507521078689       25.50325955669468       10.17966339953733
H           41.17200498100888       26.97954465528913       10.17046323225271
O           37.46600000000305       30.67300000000701        6.64299999997977
H           37.47199999998706       31.13099999998644        7.48299999997270
H           37.70800000001195       31.01200000000157        5.85700000000241
C           35.18955236081421       23.25652909688185        7.51087603319235
H           36.04227058716457       22.92223544052998        6.92835116764070
H           34.27733350048771       22.90948591052852        7.02556745803263
H           35.24283532309682       22.80313657538936        8.50067741450333
N           34.24503399864117       25.44107384232240        8.28920038724541
H           33.45854135526883       25.04307866746646        8.77559672035409
C           35.20407727680841       24.73819811422557        7.60787601913147
C           34.54733116911032       26.75477449895251        8.18315475828036
H           33.96678416593947       27.54190468635218        8.61801989718820
N           35.63964268547682       26.92646143792317        7.47828665855920
C           36.05875074771819       25.68066014129194        7.11225539666680
H           36.94117849597588       25.54702973628782        6.52140845936551


--Link1--
%mem=16GB
%CPU=0-71
%gpucpu=0,1,2,3=0,1,2,3
%oldchk=1cyf_II_S.chk
%chk=1cyf_II_Sn.chk
# apfd/def2TZVP int=(grid=ultrafine) geom=check guess=read pop=nbo scf=qc

1cyf_II_S_nbo

0 1


