%mem=16GB
%CPU=0-71
%gpucpu=0,1,2,3=0,1,2,3
%chk=1csv_II_S.chk
# polar def2tzvp apfd int=(grid=ultrafine)

1csv_II_S 

0 1
Fe           2.57634326666940       20.92887900627382       13.22165442148121
N            4.02867447406764       19.83432716156337       12.38033263489888
N            3.12171379398798       20.22935865583703       15.00992806018887
N            1.10380318419405       21.96692865452615       14.06733174330760
N            1.95063294636392       21.48149779271089       11.40220028625521
C            4.33131870862418       19.77593864325905       11.05739933103987
C            5.36111328962886       18.78931791923375       10.81190992044189
C            5.63372503939222       18.21684409115975       12.01404466609839
C            4.79999660425985       18.89386869601560       12.98339837109125
C            4.04654351301519       19.27272687102084       15.28145086658728
C            4.15088673682957       19.05193928941261       16.70637502404161
C            3.27015978605627       19.90938651367843       17.29058893880587
C            2.63361726345585       20.63307385047011       16.21314620135914
C            0.99097383210445       22.25739198430190       15.38936491666301
C           -0.00785539150468       23.28491792122533       15.60422042760697
C           -0.48253727176775       23.61599445747936       14.36172544743284
C            0.21372365494658       22.77194521146244       13.42511328902857
C            0.88273325172033       22.27377588805275       11.11647283769518
C            0.89988695435708       22.67039412834408        9.72239791003227
C            2.02147765573569       22.09789507712131        9.18403626336572
C            2.66172567994312       21.37338286377033       10.24869803757204
C            3.76336152828198       20.55428134464211       10.06925100545008
H            4.17407541995160       20.48175782857392        9.07373731209284
C            4.80470194441481       18.60774230705855       14.33532995385768
H            5.47596758631961       17.83745773186365       14.68306644327818
C            1.67760636502306       21.61418052008778       16.40299949174400
H            1.43267520595344       21.87814090889599       17.42043742971735
C            0.02294919506944       22.82155614547591       12.05343495028901
H           -0.75050909059402       23.47725254833018       11.68476543939933
C            5.93075656501392       18.48507418573015        9.46888147939948
H            6.37709445381153       19.37792950859067        9.03019844900006
H            5.15104983265796       18.13099108641835        8.79422223353439
H            6.69795696202341       17.71777859438429        9.53842806394644
C            6.59182774256811       17.12489055350927       12.34671566576987
H            6.06772436361310       16.28508978884491       12.80294135324829
H            7.34691285026865       17.47510090693417       13.05139357656068
H            7.09737548588257       16.76798195979465       11.45279514136964
C            2.51690421071365       22.17441584453760        7.78153540318877
H            2.43957635726214       21.20089675902095        7.29524767438893
H            3.56293703033839       22.47997848844308        7.75854120198379
H            1.93084919041281       22.88686585186598        7.20610019553680
C           -0.08836125648226       23.46712897867123        9.02583727084442
H            0.30839147843902       24.14607217713208        8.27825422227667
C           -1.40341082960261       23.40051724181364        9.20184472811581
H           -1.85421086925402       22.70643560811278        9.89098339740342
H           -2.07979783602042       24.02403973890667        8.64095936059292
C           -1.47080643788030       24.66872109540405       13.99817597148162
H           -2.46713468161469       24.24195183309003       13.86917060713860
H           -1.19079172792721       25.15590716004279       13.06535574225360
H           -1.51943969382203       25.42050833643838       14.78348287895638
C           -0.34951407565873       23.83908643012700       16.89511104724420
H            0.45628649694407       23.86409225611030       17.61984290954334
C           -1.54708672133611       24.29488779543235       17.24869903860268
H           -2.39562068456485       24.25152930922178       16.58863847465979
H           -1.72593042248960       24.70636373612399       18.22835443124074
C            2.96000264788531       20.10630029997019       18.73463736206974
H            1.90928453659836       19.89334658483253       18.93226652512483
H            3.15696923103012       21.13627546585287       19.03316702783667
H            3.56519920702977       19.44883045641552       19.35422421891987
C            5.06507277866542       18.05864715323736       17.33794995259776
H            4.97825209206940       18.08698347811258       18.42136894098504
H            6.10176851453762       18.26564113275418       17.07118126239886
H            4.82545549076968       17.04970472709779       17.00075704535328
C            4.87051338094872       25.99424995949575       13.07041711127227
H            5.09786036864416       26.47909513527569       14.01977462168172
H            3.99133580085045       26.46469012448183       12.64147271573505
H            5.71382693657086       26.14987035607935       12.39762952156171
N            5.54954462894996       23.69376925374554       13.79110816524860
H            6.47706137271208       23.94992960238235       14.08712171545098
C            4.61273648779573       24.54532573991142       13.26672224974307
C            5.00117807300902       22.45832699336011       13.83571122812660
H            5.50378099767690       21.58667324583876       14.20051209016196
N            3.77525587977914       22.47704209792468       13.37199266263567
C            3.51910571660816       23.76772755917802       13.01378418033079
H            2.57218711006566       24.04908327849446       12.60099027503699
C            0.76318276884534       17.66336006380438       15.46752321684781
H            1.79206636159974       17.89682489415546       15.72440133813981
H            0.74524375593866       16.70626301513704       14.95150493010568
H            0.18627531038331       17.57924100099050       16.38648243938450
C            0.17829404861921       18.74991863426890       14.58586808932832
H            0.19583215394309       19.71614167236048       15.08618798223567
H           -0.84207505252645       18.50228061005859       14.29536267034524
S            1.14979607672527       18.90236425501145       13.03046959261829
C           -0.21785678862043       19.31420135541529       11.90436414189219
H            0.21831079063117       19.47851895939807       10.92509998041049
H           -0.71151990866506       20.21933846478775       12.24275109856894
H           -0.91096367896604       18.47764519357824       11.86767350882923


--Link1--
%mem=16GB
%CPU=0-71
%gpucpu=0,1,2,3=0,1,2,3
%oldchk=1csv_II_S.chk
%chk=1csv_II_Sn.chk
# apfd/def2TZVP int=(grid=ultrafine) geom=check guess=read pop=nbo scf=qc

1csv_II_S_nbo

0 1


