%mem=16GB
%CPU=0-71
%gpucpu=0,1,2,3=0,1,2,3
%chk=1aa4_16_opt.chk
# opt apfd/gen scf=maxcycle=999

1aa4_16_opt

1 6
Fe          28.17237546879207       94.00166570202008       53.05888156750974
N           29.14636149936936       95.69014725860686       52.44709237330503
N           29.24430656218773       93.97658544774413       54.75837270875840
N           27.12820977999341       92.33862348575558       53.68424736088318
N           27.04253405859434       94.05893762366959       51.37668230597507
C           28.95130750212273       96.37503492486400       51.29488897075068
C           29.85457102817265       97.50662491676573       51.21959246715799
C           30.60361159066795       97.48366320651455       52.35839387713829
C           30.15107745226260       96.33830592027961       53.12937517405161
C           30.21746878295579       94.86214032724260       55.12784854443508
C           30.76159648342319       94.53074805869231       56.38586206523841
C           30.09290015970784       93.36758914446487       56.80981466328306
C           29.14463951730916       93.06207162302816       55.77330854233891
C           27.35146092494560       91.63297104096398       54.81871499529735
C           26.48488549078918       90.48195573551025       54.88080697291198
C           25.72980300790910       90.49834427712489       53.73065968512753
C           26.14280743439480       91.67912949547704       52.98742833250900
C           26.07405515607677       93.17651385292893       51.00904473873855
C           25.53033176787206       93.51870531819327       49.73985746897070
C           26.20524904911468       94.65653890436076       49.32119354350657
C           27.14161245224859       94.97012885264779       50.35292697201298
C           28.02321401666637       96.04935082147996       50.31525854101253
H           27.97966115735050       96.68314039754982       49.44368560159697
C           30.64612938832399       95.96934560586716       54.34554123927834
H           31.44115046333981       96.56771732177370       54.76199279802666
C           28.28599026048215       91.96785741218767       55.79561056439193
H           28.35294888294875       91.31042780023041       56.64752391482187
C           25.65531208456281       92.05496402721597       51.76694233911378
H           24.88852809584206       91.44299049800487       51.31820299444012
C           31.67399843390709       98.41334963298560       52.80019926343712
H           31.38860517633107       98.90525816527250       53.72973615154087
H           31.85895769529882       99.17731447630685       52.05082632038230
H           32.60268204571538       97.87195816406553       52.97792807007998
C           29.89579995140364       98.46517596804452       50.08475517681701
H           28.93264691014562       98.96161001008871       49.97030150794652
H           30.11991006559482       97.94523525794757       49.15376792743966
H           30.65529086347683       99.22456285990768       50.24572510359132
C           31.77485618549692       95.31473523522145       57.13893232600797
H           31.72111704084622       96.37007583453688       56.88220253288286
H           32.78467863710581       94.96431809325898       56.91866887250173
H           31.60449035960319       95.21245906193913       58.20831793795955
C           30.25751544846538       92.62153858447229       58.02143398239078
H           29.39977723031129       92.03822789135377       58.33215839587369
C           31.36205307813848       92.56979275208680       58.77434989724071
H           32.27514553540605       93.06586442668741       58.50076961938114
H           31.38723522449714       91.98691680559494       59.67858447086196
C           26.40955568618691       89.53162739838034       56.01911287422004
H           26.54245808804578       90.05150002096099       56.96583222711519
H           27.18782400509962       88.77151971247521       55.94066098138185
H           25.44281437573254       89.03360034162704       56.02782710374493
C           24.70342139543568       89.58148530760582       53.29699128997771
H           23.91188180696355       90.01491093397243       52.69864529858068
C           24.67550990276059       88.27698687940132       53.56110982082578
H           25.46380374593873       87.78148008959131       54.09957796764861
H           23.87041853095245       87.65451007553300       53.21098363386007
C           24.45122935001396       92.77120720198326       49.04080696176057
H           23.54652718441359       92.74250111246272       49.64800465056229
H           24.75874287077896       91.74390343504932       48.84529423274771
H           24.20898484812432       93.24000881692592       48.09169617706030
C           26.03097918598436       95.42962160234818       48.06506446812298
H           25.25378262574718       94.99293487658638       47.44488682131185
H           26.95849667817925       95.44453697964019       47.49284058061018
H           25.75597681573475       96.46143896204480       48.28375952102868
O           26.39895998039343       95.40792413325885       54.16934334740980
H           25.89533840936334       95.95289393326182       53.55860208324830
H           25.76715714193363       94.90116373893839       54.68678070405005
C           30.90619684693084       89.81073209925067       49.75734034324594
H           31.51052384952492       89.05603144408470       50.25960148152889
H           31.43688229245300       90.12734553987647       48.85999037724201
H           29.96264398923488       89.36187463867967       49.46334037529260
N           31.66781442584439       91.72183913159535       51.18347504725563
H           32.65199534470143       91.57553258179979       51.02385391870902
C           30.65612896097069       90.96481667177369       50.65366357627590
C           31.10667718353686       92.68182997388759       51.94555206259822
H           31.66285428270589       93.42199942253613       52.48480015410884
N           29.80077432164969       92.58569265743958       51.93586641305793
C           29.50440589568204       91.52109425656700       51.13571804011914
H           28.48938057881096       91.22784380950324       50.96156858639280

C N O H 0
6-31G*
****
Fe 0
TZVP
****


