%mem=16GB
%CPU=0-71
%gpucpu=0,1,2,3=0,1,2,3
%chk=1co8_II_S.chk
# polar def2tzvp apfd int=(grid=ultrafine)

1co8_II_S 

0 1
Fe          35.32222311770106        4.03824964441480       10.18412141732471
N           37.22625599402762        3.77147769558821        9.64975340725944
N           35.07527080125450        5.32861716922414        8.66246142298293
N           33.41928948200766        4.37604582079566       10.75627897946458
N           35.57648219399572        2.81666265626746       11.74111416647276
C           38.13091072861191        2.95249580405074       10.24632330546510
C           39.37651110406906        2.94272359096226        9.51083466230545
C           39.20567552900846        3.78837020458539        8.45969349260035
C           37.85757817949082        4.30174560963708        8.56844868302490
C           36.00954331068705        5.68861467631149        7.74036824922063
C           35.46225313866239        6.62331620823576        6.79016314949231
C           34.15988336332145        6.82848959293621        7.16025143223523
C           33.94680490723246        6.01174176819193        8.33999150501269
C           32.53766565320184        5.25256534713516       10.19944697768299
C           31.33008798881762        5.33370539574651       10.97765729126114
C           31.52673536950967        4.53666186618197       12.07548079956415
C           32.83261082881075        3.93211111459180       11.89932486831283
C           34.67042819917686        2.52383453625115       12.71000964837990
C           35.24894657585291        1.64865492400323       13.70705430001868
C           36.53416373276409        1.43176075206753       13.32185642003628
C           36.71751290020955        2.16552097249385       12.08777440735469
C           37.91208789411660        2.21691349981835       11.39653576192146
H           38.73587143899082        1.63382523298286       11.77924261512639
C           37.31046996531923        5.21648872873779        7.69056578748176
H           37.94476990936761        5.58419765743071        6.89818671354985
C           32.75715114362554        5.97528267281558        9.03963742373612
H           31.95478512646068        6.60718663807308        8.69075201269794
C           33.38052926501985        3.01432396110032       12.77797754663987
H           32.78432536057992        2.71850166211634       13.62764937304814
C           40.16302439179380        4.15907200546071        7.37870011979843
H           41.10668489665326        3.63305490211895        7.50069165372298
H           40.36386188467903        5.23060304913862        7.39490564501950
H           39.75457242465692        3.90753169770942        6.39935086518316
C           40.57174129941648        2.13727302712690        9.89049392697554
H           40.32517951510511        1.07564618121332        9.91723461827616
H           40.93007023629364        2.42534872405695       10.87906693620491
H           41.38013739524692        2.28380130855465        9.17820463618706
C           36.18422534201802        7.17135676500158        5.60841319402011
H           36.83227118243902        6.41647358352194        5.16517025731486
H           36.80496944903364        8.02285434650137        5.89205907372325
H           35.47077440405494        7.50253885629979        4.85640146851510
C           33.15155422571797        7.65808072841110        6.53847786025580
H           32.13634606846628        7.28211088962749        6.59598480991575
C           33.37418860298965        8.81696171515067        5.92679428785484
H           34.35273501669113        9.26208176957602        5.88116777307144
H           32.57394831961918        9.37683359142464        5.47157075530026
C           30.12467648785948        6.12706321170031       10.61139062352031
H           29.94241197855110        6.07364950280733        9.53906706820098
H           30.24892730804530        7.17765155718094       10.87991856085880
H           29.25150208917188        5.74015423234924       11.13287033023141
C           30.63484483032974        4.27300193005910       13.18271768758330
H           30.68921652775406        3.27566560611809       13.60375397442825
C           29.78630757723901        5.14747021371588       13.71393075608237
H           29.72224337445914        6.16546516063917       13.37124418820707
H           29.14008641461840        4.87895848867159       14.53319960709750
C           34.52121739375614        1.14022261639536       14.90430993770510
H           33.63782729576400        0.57539317478126       14.60540048780919
H           34.19540281966882        1.96759943561364       15.53547285202780
H           35.15905391237087        0.48903469207385       15.49699410887764
C           37.59416806261790        0.61831996133942       13.98213910289168
H           37.94511277629202       -0.16869089595228       13.31422414848608
H           37.21685153564628        0.15408952014548       14.89008281199354
H           38.44797015474533        1.24294306014571       14.24594393447692
O           35.85199999999339        5.79800000000246       11.51600000000093
H           35.02099999999975        6.19100000000692       11.78299999999639
H           36.66299999999954        6.06000000000440       11.76899999999340
C           32.79322740975925       -0.46777935530297        8.10820349117810
H           33.39372451717327       -1.35310832590196        7.89931497715609
H           32.10283718087454       -0.32062892042234        7.27776665181306
H           32.21812033006339       -0.64266008801200        9.01194484566220
N           34.48354295927574        1.19631201021292        7.30542621907337
H           34.58796706739849        0.79888412280379        6.38633926851000
C           33.65748576144195        0.72555343799226        8.29243913214306
C           35.12242258342437        2.28522966464794        7.79055901979494
H           35.83298914699049        2.86191783582505        7.23485239138578
N           34.75150090479919        2.53160876021587        9.02356560592826
C           33.84131950003446        1.56935801210167        9.34996223949864
H           33.38335828853414        1.55073616742813       10.31694956951710


--Link1--
%mem=16GB
%CPU=0-71
%gpucpu=0,1,2,3=0,1,2,3
%oldchk=1co8_II_S.chk
%chk=1co8_II_Sn.chk
# apfd/def2TZVP int=(grid=ultrafine) geom=check guess=read pop=nbo scf=qc

1co8_II_S_nbo

0 1


