%nprocs=12
%mem=16GB
%chk=1aef_II_S.chk
# polar def2tzvp empiricaldispersion=gd3bj apfd int=(grid=ultrafine)

1aef_II_S 

0 1
78
 energy: -116.031614170800 gnorm: 0.000226425888 xtb: 6.6.1 (8d0f1dd)
Fe          28.46393971585200       93.83609698341554       52.87791638917311
N           29.62429889062184       95.38199174999396       52.27836098075553
N           29.54261982542331       93.78575139994487       54.62303891053078
N           27.53886168405647       92.16834577365421       53.50873777520997
N           27.42518581678559       93.86474345837371       51.22864745210288
C           29.29293972948932       96.16138915354631       51.21066730815802
C           30.01160194041235       97.41463337839424       51.24353915335600
C           30.70524254661065       97.42331153121491       52.41381111722917
C           30.42583325154517       96.15895612475121       53.05592011517294
C           30.52587727087547       94.65572948844381       54.98703378829389
C           31.16993541127786       94.23133972641068       56.20360771486832
C           30.62869996727299       93.01315021477203       56.51677990486016
C           29.59702172178535       92.77113018320833       55.52573882127955
C           27.78883297243854       91.40676057784066       54.60519179201120
C           26.80689665163345       90.36312232592009       54.73948383487875
C           25.94652239585464       90.50399216084662       53.68038108286690
C           26.44500745823311       91.62659479155859       52.91096176873446
C           26.48707563028468       92.96115832917422       50.84584318814059
C           26.10286968423087       93.18525361612024       49.46823326456705
C           26.81431580201079       94.26410964046143       49.04387040133628
C           27.64838564606091       94.66701987228365       50.15712456613973
C           28.48204924895881       95.76972558760487       50.15504450582191
H           28.45075637212747       96.41364772956096       49.28852897495491
C           30.86331899488078       95.82341239100066       54.32110654463749
H           31.56623927441164       96.48822042159142       54.80016657383843
C           28.81929682518068       91.63221994807225       55.50325970544831
H           28.97733402432239       90.89743548492076       56.27748886994641
C           25.95067941862121       91.98284314299782       51.66475649888325
H           25.14083777918123       91.39061738031509       51.26514966781927
C           31.59305261293039       98.47746546797183       52.98172707497091
H           31.19323246446970       98.84853764685880       53.92600235021067
H           31.68480634482885       99.31656660476847       52.29639756983160
H           32.58996008722733       98.07894791341785       53.17161578537893
C           29.92040820932017       98.46781472320917       50.19285093395938
H           28.89012830508711       98.80391492905123       50.07467250155381
H           30.26063015677826       98.08006479542317       49.23225437320813
H           30.53400147101639       99.32745338993875       50.45145786640356
C           32.20896618279598       95.00097002404485       56.94215778698810
H           31.97515806689644       96.06475751167503       56.93855009688927
H           33.19269531700444       94.87097453995825       56.48744432970901
H           32.26015573096662       94.65975272542640       57.97409153189982
C           30.92935018941347       92.13898529899028       57.62836167011145
H           30.09089455931770       91.57926063801824       58.02639382727959
C           32.12965725740031       91.97007521259384       58.17416716123147
H           33.00755851239787       92.46198612440560       57.79292195338288
H           32.27968243318164       91.30951242851408       59.01206459659377
C           26.72985580773634       89.40055351785630       55.87316312706513
H           27.03025878542271       89.87759719673556       56.80459839510572
H           27.38731612694962       88.54590294837384       55.70415895539416
H           25.71130763665037       89.03335426884399       55.98301093840976
C           24.76040616357751       89.74603905106362       53.35074140585151
H           23.97481034809640       90.30498629043151       52.85454456108374
C           24.57161675412702       88.45329714307584       53.59685368599208
H           25.33252156742665       87.83703276674144       54.04259756089760
H           23.65070278025079       87.95910304751744       53.33455862190363
C           25.09750192227053       92.36519956919702       48.73461323576972
H           24.11512083827920       92.45624599233261       49.19948190411026
H           25.37924495521905       91.31219440437944       48.74768661285133
H           25.01599773886595       92.68643050165507       47.69911228839955
C           26.81318110947963       94.93251770274705       47.71197527473122
H           26.14588487269640       94.42201621408513       47.02183087138069
H           27.81590237124603       94.93601183331326       47.28452664972087
H           26.48271963582355       95.96761434397776       47.80456486839449
O           26.91999999999797       95.14800000000601       53.86999999999806
H           26.17999999999890       94.60199999999756       54.13500000000210
H           27.00199999999736       96.02399999999378       54.00200000000029
C           31.06971635985379       89.70660842987705       50.13143207773477
H           31.69016988454988       89.95905993978810       49.27153439066511
H           30.14662561065802       89.25997185518690       49.77557896193453
H           31.60396868925165       88.97151405260124       50.73322585218459
N           31.73163755978720       91.68651570711772       51.51574768772120
H           32.72292143934107       91.51681193131206       51.46817129282193
C           30.75879463392227       90.91760816074034       50.93242729469436
C           31.11779025959373       92.70016031388336       52.16549982336399
H           31.63309206874078       93.46013391469823       52.71525444970759
N           29.81697554191981       92.62027054220056       52.03001365932656
C           29.57797527443876       91.51729828121891       51.26468128438250
H           28.58062175737029       91.22816433940386       51.00568123783776


--Link1--
%nprocs=12
%mem=16GB
%chk=1aef_II_S.chk
# apfd/def2TZVP empiricaldispersion=GD3BJ int=(grid=ultrafine) geom=check guess=read pop=nbo scf=qc

1aef_II_S_nbo

0 1

--Link2--
%nprocs=12
%mem=16GB
%chk=1aef_II_S.chk
# apfd/def2TZVP empiricaldispersion=GD3BJ int=(grid=ultrafine) geom=check guess=read scrf=(smd,solvent=Chloroform) 

1aef_II_S_solv 

0 1 


