%mem=16GB
%CPU=0-71
%gpucpu=0,1,2,3=0,1,2,3
%chk=1cmt_II_S.chk
# polar def2tzvp apfd int=(grid=ultrafine)

1cmt_II_S 

0 1
Fe          28.47391289744881       93.82724635676895       52.97136866527109
N           29.52547436819225       95.39328811336446       52.35231869089987
N           29.51869803330592       93.76173402703519       54.67076140666619
N           27.44237364698891       92.18317325466086       53.55997616579860
N           27.38673646406658       93.83479176364031       51.29181725249629
C           29.28456767869513       96.12183953231796       51.23305213587007
C           30.07475383300581       97.33280006179703       51.23237789175312
C           30.78613181401622       97.32860803443731       52.39174695641627
C           30.39682812619181       96.12829363213585       53.09725316468207
C           30.47446672139927       94.65412033800111       55.05648917332550
C           31.09843106829513       94.24038829680727       56.28514627542489
C           30.53384370752504       93.03488366703394       56.61459179517298
C           29.53136593417109       92.77263871196969       55.59708894133642
C           27.70237406144317       91.42237252094522       54.65924603352524
C           26.76082041385702       90.33625269975168       54.76575402960174
C           25.91044220069947       90.45569052560424       53.69750069271544
C           26.38929284647544       91.59430291632110       52.93908430070950
C           26.39599895297033       92.98427255665801       50.92614391356835
C           25.96072501370453       93.24991960091960       49.57288461354052
C           26.68482277352895       94.31773758748183       49.14394128120839
C           27.55367533598086       94.68507947261531       50.24300843579100
C           28.40820568045479       95.77076920846983       50.22016250642463
H           28.38284209902011       96.40457379296058       49.34740073903618
C           30.86399855648036       95.77998286449638       54.34886106664525
H           31.59885269885788       96.42602222165749       54.80432243831118
C           28.69030642313072       91.67755817280886       55.59618284707592
H           28.81586099323255       90.95763355997593       56.39038432379481
C           25.88314730318364       91.96323232621548       51.70482747561649
H           25.06475857062033       91.38746266120722       51.30148967033327
C           31.75500666246425       98.33564481524179       52.91345757355272
H           31.90567925677515       99.13911393232483       52.19655686387070
H           32.72328445854016       97.87929953631607       53.12394681273601
H           31.38087730689608       98.77154117511287       53.83985523944050
C           30.09341906827590       98.32095756633389       50.11706837418205
H           29.09893320777500       98.74148507995723       49.97634742574644
H           30.39555866795442       97.84811036638686       49.18108116969885
H           30.78450715031902       99.13330222385980       50.32791502540343
C           32.08713231080894       95.04624104038118       57.05426311968020
H           31.83016900233728       96.10495750580998       57.02298836143495
H           33.08994140092884       94.93164081950350       56.64067760484981
H           32.10785559049370       94.72737254094292       58.09490356069195
C           30.80187261517113       92.20134777986402       57.76318682470585
H           29.96018516390890       91.63744017467505       58.14843591415853
C           31.98610610333824       92.07793919640424       58.35608253475704
H           32.86731015245115       92.57011728719496       57.98414641926921
H           32.11871431544573       91.46120918647922       59.22792678060849
C           26.73195452063116       89.32374158358394       55.85682106854642
H           27.04571558943618       89.76562763024951       56.79947529747671
H           27.39968460527109       88.48685923813831       55.63843439011359
H           25.72326291110280       88.93387358762759       55.97166089249485
C           24.78722654558050       89.63020696187084       53.30946775441696
H           23.98498238704538       90.15377541856908       52.80330324823983
C           24.66785997487967       88.32141155959154       53.51441362238198
H           25.44648919595175       87.73833593526857       53.97267970663797
H           23.78978826638545       87.78156240476109       53.19975931683924
C           24.91802096345941       92.45390631840444       48.86469290130931
H           23.96085648681912       92.50543037734694       49.38583531437517
H           25.21977996510439       91.40780167236592       48.81972798693526
H           24.77453518088473       92.81289439977121       47.84908222940232
C           26.62528197050211       95.01827322991096       47.83083591856801
H           26.30531008143775       96.05304726737043       47.95864921206451
H           25.92176729643045       94.52305951345761       47.16547498919206
H           27.60430048174754       95.02260500018106       47.35248040717885
O           26.90200000000328       95.13099999999989       53.97699999999355
H           26.18899999999790       94.54900000000235       54.23800000000158
H           26.95200000000282       96.00500000000274       54.13399999999776
C           31.03364377403025       89.77784977938063       50.10639199678879
H           31.65727602813861       90.07088210002297       49.26185900030359
H           30.10964920968459       89.35372779479619       49.72602683402262
H           31.56340212168162       89.01127060875112       50.67161937056832
N           31.70666680722350       91.69966087886590       51.56338946182867
H           32.69718980800656       91.53476693080945       51.49784373066044
C           30.72790859267511       90.95171795025992       50.96289919269851
C           31.09944693314536       92.69128400501708       52.25258352949128
H           31.61807465561668       93.43251026973006       52.82463154014344
N           29.79730542285496       92.61608736707039       52.12580081081875
C           29.55010007403425       91.53850301890057       51.32679232644413
H           28.54985237633507       91.25676309075997       51.07015271157351


--Link1--
%mem=16GB
%CPU=0-71
%gpucpu=0,1,2,3=0,1,2,3
%oldchk=1cmt_II_S.chk
%chk=1cmt_II_Sn.chk
# apfd/def2TZVP int=(grid=ultrafine) geom=check guess=read pop=nbo scf=qc

1cmt_II_S_nbo

0 1


