%mem=16GB
%CPU=0-71
%gpucpu=0,1,2,3=0,1,2,3
%chk=1dp6_12_opt.chk
# opt uapfd/gen scf=maxcycle=999

1dp6_12_opt

1 2
Fe          48.03997603645296       55.64034578980384       33.89662269735323
N           47.25681633722046       54.79450666373049       32.23783158964289
N           49.86111993511840       55.61498207442174       33.04378493775660
N           48.80146537030313       56.61939422258864       35.47584873382804
N           46.17994287413070       55.99174002310533       34.57740344097704
C           45.94200048054397       54.54377752736663       31.99125564265854
C           45.79484369900735       53.79694822910095       30.76434162763744
C           47.05470713951243       53.60814838110476       30.27330383651074
C           47.95494443936530       54.25389438808326       31.20051618387738
C           50.19250034974744       55.01468094084222       31.86430805822064
C           51.59943092825321       55.15709111747660       31.60993387142727
C           52.11586545071269       55.87760931614174       32.65825916572839
C           51.01559075469309       56.12068946580234       33.56339484062105
C           50.12160381318287       56.85400704332164       35.72744873767893
C           50.29604282924616       57.38575049867926       37.05189976037982
C           49.03738332231433       57.48493281425596       37.59871774069138
C           48.12075212656443       56.99804589690937       36.59329843543961
C           45.85114012807441       56.53424758233295       35.78364130984824
C           44.41903466889335       56.53895474051794       35.95624852913251
C           43.89146513184458       55.97349783779504       34.83073021715698
C           45.00755096200443       55.62001332964412       33.98769294733302
C           44.88608411963978       54.94908397951220       32.78579718769512
H           43.89058964851381       54.69783762712667       32.45605581252028
C           49.31940062347743       54.35249608799948       31.01745422536033
H           49.73946062502611       53.88964346743202       30.13849772797516
C           51.15411067127040       56.65807733804433       34.82750170360903
H           52.15112961925936       56.91902732941482       35.14453510683468
C           46.74611102767732       56.99082268502043       36.73325085360978
H           46.33714806362702       57.35905432282618       37.66058649798165
C           47.49014088896627       52.89613416281438       29.04413256804070
H           46.63846416389367       52.46880597108814       28.52353726771973
H           48.17799230590613       52.09006129621275       29.29606533417584
H           48.00164511160271       53.57762860869516       28.36493019785749
C           44.49201857059896       53.34430616899108       30.21169191044958
H           43.83818640420809       54.19529145417502       30.02426671878114
H           43.99093579824157       52.68054824519621       30.91525102573542
H           44.63395249950625       52.80838825675762       29.27801982278655
C           52.30553863384293       54.63831100347662       30.41013918144017
H           51.89435191100364       55.07651125203832       29.50121798148403
H           52.19763044831818       53.55625241360544       30.34184895447261
H           53.36313014438262       54.87995570125959       30.45671064794813
C           53.49086959320795       56.30047027992154       32.83573857235863
H           54.23862912992684       55.59086683885066       32.50502712418181
C           53.87377582187042       57.47595875102589       33.32062977390457
H           53.16689440522683       58.23693223184316       33.60692156486022
H           54.91526833782155       57.72964583261469       33.41490797026634
C           51.60441055524442       57.68369934660156       37.68529435627264
H           51.96480004222057       58.66939531283010       37.38806353144081
H           52.35075443365646       56.94903616407311       37.39097486108089
H           51.50492687896297       57.66719508794684       38.76792106887746
C           48.64710635141457       57.93683482136194       38.91643299597668
H           47.78931278266733       57.43588282275969       39.34590713195436
C           49.25596652961376       58.89646366423073       39.60616744539541
H           50.08222022057457       59.45773478089453       39.20623587345920
H           48.92202027460496       59.17345983198543       40.59092403832785
C           43.72329234187136       57.05736791581355       37.16284200542167
H           44.01123984871327       58.08863385400954       37.36290855663498
H           43.98234407325889       56.45780261986269       38.03487643984197
H           42.64592972577980       57.01948237484146       37.03253787271578
C           42.46855960998096       55.71456838933598       34.48863960843764
H           41.80827447264125       56.14350589130822       35.23644060191003
H           42.27885551938145       54.64267903049798       34.44170813313731
H           42.22049074589996       56.14578421002013       33.51986987318450
O           48.17226431920324       54.20465171276641       34.64238493593784
O           48.23769667371000       53.85669945870443       35.84467904943732
C           47.86161924102619       59.98167127759337       30.06667921255623
H           48.58646278823567       60.78806621155498       30.17124093437812
H           46.89401743451081       60.42483215758259       29.83451485652062
H           48.16247833605190       59.34894398292610       29.23785790638599
N           47.42538107522309       59.72011558298006       32.51732746781342
H           47.18196621895698       60.68582035831133       32.67603881499572
C           47.78600013830489       59.18087617741925       31.31078465619444
C           47.45432253609764       58.74106968788676       33.43714777818573
H           47.21597366858906       58.87728821004389       34.47283536906595
N           47.81309355038208       57.60169220575393       32.88967251253067
C           48.02359704567344       57.85960664630037       31.56523783816366
H           48.32798722338401       57.08677102284586       30.89065623779658

C N O H 0
6-31G*
****
Fe 0
TZVP
****


