%mem=16GB
%CPU=0-71
%gpucpu=0,1,2,3=0,1,2,3
%chk=1cck_II_S.chk
# polar def2tzvp apfd int=(grid=ultrafine)

1cck_II_S 

0 1
Fe          -5.98947390341813       57.00492881119924      111.74400628196720
N           -6.65272538932712       56.12516389781482      113.40325804209500
N           -6.95462344658862       58.70276014408065      112.25676135158884
N           -5.12950320400198       57.99674088088299      110.20782932380763
N           -4.93744738412839       55.38691031635483      111.26861234056601
C           -6.38460411812452       54.85364057018230      113.80518146165701
C           -6.98777943083953       54.58808845834042      115.09117501663358
C           -7.63168907238220       55.73075847982462      115.45578621256266
C           -7.37690656307739       56.69249338260444      114.40695483166776
C           -7.60168511147767       58.93779293506297      113.43440595384799
C           -8.11708241326875       60.28178032992715      113.48101930686860
C           -7.67938285872258       60.89828965927521      112.33917139669137
C           -6.88028037123297       59.91031289611095      111.63692166032106
C           -5.28945205067652       59.30542983315872      109.87354937542591
C           -4.47484000595116       59.65477547279157      108.73851409748521
C           -3.77089843266056       58.52651254856323      108.41090624049009
C           -4.22316587280093       57.49682505480909      109.32747712821458
C           -4.17327953053517       55.19449065568310      110.16330778273304
C           -3.81599643093124       53.79947644732462      110.02240050726630
C           -4.35307836754477       53.15936771906578      111.09491333390176
C           -5.02849586551108       54.17340858700589      111.87570593013980
C           -5.66350883453485       53.92322866756781      113.07783564417100
H           -5.58830351601676       52.92552526645152      113.48319421885333
C           -7.81186203707695       58.00350328316487      114.43562241174200
H           -8.36110894126867       58.32266362313559      115.30834210576876
C           -6.13308476118236       60.19517631578116      110.51331385437565
H           -6.16985736268632       61.20342850861769      110.13106220327194
C           -3.78922882593115       56.18512359296739      109.27961717721034
H           -3.10575769462781       55.90904256209943      108.49114970985174
C           -8.41678095476597       56.02005077988821      116.68960862957569
H           -7.93847313693761       56.80599341953980      117.27547069253092
H           -8.49940493120371       55.13266999322958      117.31233192248344
H           -9.42235124595530       56.35505055422637      116.43470121485252
C           -6.89580033132183       53.28574884345630      115.81001060928290
H           -5.85363409898745       53.02319348619943      115.99277091528913
H           -7.34530488561051       52.48773713837903      115.21828671454379
H           -7.40945721561494       53.33373790475752      116.76715405722783
C           -8.88827093287144       60.86896343675821      114.61169616405856
H           -8.49935658696944       60.51972618379744      115.56714302020788
H           -9.94126980169212       60.58766477725961      114.55373970799614
H           -8.82108205809720       61.95462047710458      114.58527842301501
C           -7.89478463589347       62.25821782967358      111.89967430636267
H           -7.07780972572909       62.71208483648334      111.35109369802507
C           -9.00024653186451       62.96767586609432      112.10457762774773
H           -9.86272932443586       62.55574754669533      112.59912642132477
H           -9.08970206819216       63.98377211968968      111.75745941734760
C           -4.46482503072336       60.98207453961589      108.06354990409423
H           -3.82576120227754       61.68824177319059      108.59748429165481
H           -5.47013549634486       61.39990969944431      108.02319549170008
H           -4.08911506475988       60.87972469946254      107.04695668121416
C           -2.81086608424020       58.32665973451044      107.34829710382678
H           -2.80399567111075       57.34037166750504      106.89902921150272
C           -1.95262970401337       59.23886468503579      106.90314079888061
H           -1.87881207834361       60.21829363548112      107.34206976780202
H           -1.27148116964129       59.02537615628525      106.09600983122589
C           -3.01094969686595       53.24850826094097      108.89557865736120
H           -2.01639678314948       53.69540806076567      108.88108367102437
H           -3.49075085509967       53.46248990433097      107.94014361181887
H           -2.89958979878891       52.17100594342941      108.98954492983839
C           -4.29314932601305       51.71610791700858      111.46169822620897
H           -3.76829868095596       51.14449566550933      110.70014900020956
H           -5.29748371786902       51.30615006160262      111.56924413414028
H           -3.77076895529627       51.58296124211161      112.40963635372933
O           -4.28099999997829       57.65700000000079      113.10699999999575
H           -4.52000000000643       57.27699999999705      113.95299999998474
H           -3.58300000000425       58.18300000003168      112.94499999999697
C           -9.31829513648820       54.97859060773729      107.76097381209799
H           -9.98949673918625       55.68156656556046      107.26716958760231
H           -9.87285066640414       54.06220209675300      107.96292224421438
H           -8.49893138978469       54.74909875308994      107.08687898510112
N           -9.58289903345544       55.89810809789417      110.07506252805001
H          -10.58409146021659       55.79824204110097      110.10937832416545
C           -8.78019951795761       55.55729017226894      109.01812925987656
C           -8.78750589953926       56.39267695667080      111.05089538152804
H           -9.14205392967741       56.74173410023807      111.99854242994984
N           -7.53103039525680       56.38505986161447      110.67585274544984
C           -7.51065221531695       55.86897732512085      109.41323479931039
H           -6.58964699475834       55.75761792297430      108.87901817200510


--Link1--
%mem=16GB
%CPU=0-71
%gpucpu=0,1,2,3=0,1,2,3
%oldchk=1cck_II_S.chk
%chk=1cck_II_Sn.chk
# apfd/def2TZVP int=(grid=ultrafine) geom=check guess=read pop=nbo scf=qc

1cck_II_S_nbo

0 1


