%mem=16GB
%CPU=0-71
%gpucpu=0,1,2,3=0,1,2,3
%chk=1bem_II_S.chk
# polar def2tzvp apfd int=(grid=ultrafine)

1bem_II_S 

0 1
Fe          -6.00828726712544       56.81055506479289       20.87560293533572
N           -6.77982562438281       55.88242484214728       22.47247401608313
N           -6.81613729378617       58.55262501937778       21.54903651771499
N           -5.25041351273507       57.74631952799314       19.30381775102171
N           -4.88323069461594       55.16225847653988       20.45923662056269
C           -6.69501340986783       54.55105660864340       22.75598962952325
C           -7.18817722715976       54.28899467860345       24.08941252262771
C           -7.82714527970879       55.42421342139869       24.48157047775888
C           -7.55393340197737       56.41358660292718       23.45784168956329
C           -7.66482127807964       58.70478088074025       22.60063622813808
C           -8.22399221068153       60.02912915000442       22.62217712955019
C           -7.78583003403240       60.64557655826376       21.47709130577650
C           -6.94161199761059       59.68011121710722       20.80233814230176
C           -5.32896319826610       59.07512607410626       19.04279703977353
C           -4.60613922331809       59.40410599240640       17.83777912248699
C           -3.92209581082993       58.27103793402379       17.48740745702990
C           -4.39109752952466       57.22711907017338       18.38237751425264
C           -4.29600228332502       54.93176232675529       19.24949151098022
C           -3.96687360465701       53.53488938060519       19.07894657433639
C           -4.59646942097652       52.88439788156055       20.09457833567730
C           -5.19195246866425       53.91255507163701       20.92248271227215
C           -6.00110299191697       53.62003450003751       22.00170312693371
H           -6.08415205315487       52.58339010369755       22.29537057854859
C           -7.84913858480882       57.75495626663846       23.60140548818340
H           -8.45231077374426       58.03829415659132       24.45112196215424
C           -6.18476633618065       59.96003729887836       19.68074551950413
H           -6.27223234052241       60.94616373821546       19.25025521457455
C           -3.92365380331348       55.92509415058259       18.35604477481504
H           -3.32136667505176       55.63090444914683       17.50784019703919
C           -8.55242543731187       55.70514726441716       25.75274148180545
H           -8.00624222043536       56.42467414472593       26.36493033868134
H           -8.68289951206050       54.79300417379247       26.32988593818868
H           -9.53658027488805       56.12096387957347       25.54237628651293
C           -7.10684130396138       52.96620959753704       24.77184458167680
H           -6.06949555553003       52.64033122966220       24.83974224075735
H           -7.66123942097358       52.20729853139470       24.21968170009611
H           -7.51467019397908       53.02307767462170       25.77741512308718
C           -9.06782225394152       60.59143684670018       23.71305647609599
H           -8.73704302776537       60.22484112724879       24.68360897756956
H          -10.11332573757521       60.30864790677309       23.58674037580196
H           -9.00532368019954       61.67722911027347       23.70952633524641
C           -8.07816344187631       61.97538042173949       20.98746521818416
H           -7.29247304482476       62.44467401169968       20.41012740733684
C           -9.21165735779127       62.64311177069504       21.17899147311227
H          -10.04638353539791       62.21297067745913       21.70449878499973
H           -9.35104252968208       63.63883915988675       20.79506449195149
C           -4.46217613053121       60.77237549386376       17.27274297489857
H           -4.43985310011395       61.51752991053878       18.06484503690086
H           -5.29658668898687       61.00886354830158       16.61154212113892
H           -3.53762832536929       60.84626535564125       16.69981686375531
C           -2.99343052631648       58.06006534018168       16.39635873984369
H           -2.20193500315778       57.34586670784254       16.58979625997970
C           -3.03967559071316       58.66568242321732       15.21378325974591
H           -3.83045456422785       59.35042605220774       14.95353015268577
H           -2.30161663664109       58.47716117036229       14.45374207958904
C           -3.20502172938177       52.97858995368185       17.92601391809576
H           -2.23213823652330       53.46216035706431       17.84441986066456
H           -3.74458039709113       53.14693900755837       16.99294991943207
H           -3.05093882099761       51.90968027788833       18.04851055506088
C           -4.66637118934882       51.42411234845806       20.37672712435204
H           -4.09566032881875       50.86264790051619       19.64139886564002
H           -5.70008294603859       51.08061652897859       20.34512617458919
H           -4.26856082069214       51.20185299710520       21.36639437302226
O           -4.28600000000399       57.36100000000170       22.25800000000057
H           -4.61300000000632       56.99600000000149       23.07999999999581
H           -3.53199999999771       57.81999999999983       22.15000000000101
C           -9.45632445670910       54.72736318233359       17.01769303634356
H           -8.64791824981453       54.41608171271081       16.36293597953811
H          -10.10525980223257       55.41187078779517       16.47204024359034
H          -10.04007599443364       53.84990387522570       17.29687201247418
N           -9.67568135846603       55.89425561143553       19.22511612674701
H          -10.68129015903092       55.87849438050016       19.24778247951362
C           -8.89127994009865       55.38762329722632       18.22189942646907
C           -8.85498222693164       56.41731950442790       20.16438897549941
H           -9.19142472110972       56.88461433868373       21.06699301955504
N           -7.59749803385000       56.26848274864568       19.82005517185373
C           -7.60435261283404       55.63157544533828       18.61130282474727
H           -6.68676322145401       55.39351356449547       18.10881899177438


--Link1--
%mem=16GB
%CPU=0-71
%gpucpu=0,1,2,3=0,1,2,3
%oldchk=1bem_II_S.chk
%chk=1bem_II_Sn.chk
# apfd/def2TZVP int=(grid=ultrafine) geom=check guess=read pop=nbo scf=qc

1bem_II_S_nbo

0 1


