%mem=16GB
%CPU=0-71
%gpucpu=0,1,2,3=0,1,2,3
%chk=1cyo_II_S.chk
# polar def2tzvp apfd int=(grid=ultrafine)

1cyo_II_S 

0 1
Fe          33.33663885295585       20.22945611268178       34.29692961000057
N           33.11277809327533       18.44307165727078       35.14918453057823
N           33.98714960301222       19.35505235952254       32.61187092669607
N           33.57701162772601       22.03707525116855       33.43766998927177
N           32.69950378259686       21.12363684730151       35.96933514639392
C           32.78580934678796       18.19761967539271       36.44274227476024
C           32.86869433012598       16.78195968689764       36.73118044828542
C           33.19705615074358       16.17320196515063       35.56071434317611
C           33.34634332089632       17.22999395386906       34.58265484415558
C           34.06807162558345       18.01859629184263       32.36946217814826
C           34.57680930093078       17.76610073378452       31.04522082034226
C           34.84101222361836       18.99320359021836       30.49662505375368
C           34.45027643609441       19.97033762610879       31.49586277160304
C           34.12007913787264       22.29347588545608       32.21703369042303
C           34.18322607254758       23.71043984558781       31.97058867014506
C           33.65290336881248       24.31878117016977       33.07910512541010
C           33.27924275325250       23.24555832362191       33.97970516996140
C           32.45341868771017       22.44748156731397       36.15018344302383
C           31.86754323495196       22.68569268413457       37.45101989659908
C           31.75399331152845       21.46745042394688       38.04556406732427
C           32.30356575008870       20.50773835692719       37.11367459330441
C           32.36770433472048       19.14789106602196       37.35590203139151
H           32.06880094876180       18.80173892671448       38.33408760551663
C           33.76566943965191       17.01975267139527       33.28244264031065
H           33.88633843786229       15.99606845156917       32.96004206812210
C           34.53424695723429       21.33542548509966       31.30788074753916
H           34.92345362031738       21.68488903883974       30.36362370617728
C           32.72512987516834       23.44685330577449       35.23289972866841
H           32.49434425074448       24.46139103108919       35.52219469081387
C           33.39745478374280       14.72425332750454       35.27195321342901
H           33.20307010907415       14.12304177746200       36.15683404099669
H           34.42036674549931       14.53304315392315       34.94543525298292
H           32.72390780351438       14.39507400510642       34.48025424848378
C           32.60400131463600       16.17804010736346       38.06784379641304
H           31.56590875450312       16.33769404096824       38.36199664420659
H           33.24272448553474       16.63141026449361       38.82569006008556
H           32.79427821441820       15.10742843814438       38.05434942540822
C           34.84823588333199       16.41980089812719       30.46831414090636
H           33.93939069004511       15.98498567546462       30.04854680052813
H           35.22478009448679       15.73930903393854       31.23073326862840
H           35.58943904662988       16.49646724305698       29.67523943774289
C           35.39521902397561       19.31412087533277       29.20058963055155
H           36.01876034471615       20.20036188751008       29.16526542283966
C           35.19539627938586       18.62549296312609       28.08108596504107
H           34.54588559004139       17.76840230397191       28.04398044032624
H           35.65417355005874       18.91640182808507       27.15040798623088
C           34.78807543959396       24.34738436113592       30.76798282381494
H           34.07269012326530       24.38185356637544       29.94443836679910
H           35.65982143976195       23.78784260924997       30.43237265989113
H           35.09528160213924       25.36583545088916       30.99819240340992
C           33.48788045807215       25.72675115409805       33.36175654972289
H           33.56872209982515       26.00695929958091       34.40623950790841
C           33.24064489089498       26.67571845227094       32.46369382787581
H           33.10176704006051       26.45599021828205       31.41969487214776
H           33.14432658407144       27.71011514367470       32.75004966724518
C           31.47129892749480       24.02904392106883       37.96297339408633
H           30.73546410873418       24.49224322762829       37.30466383505927
H           32.33733478406869       24.68979549629486       38.01668563412832
H           31.03949831812371       23.95224547439178       38.95793821427876
C           31.21282468655530       21.12110729327706       39.39071772411352
H           30.84552593989936       22.00809996154419       39.90154141654523
H           31.98590994969172       20.66457582807231       40.00969154637899
H           30.39050353614573       20.41108952421715       39.30085419539618
C           28.47071140678233       18.67502239255372       32.00456344045315
H           28.19302931954009       19.13763964508106       31.05735353612802
H           27.58389435581616       18.63480182052884       32.63717467274622
H           28.80652621620200       17.66110141587188       31.81074899030851
N           29.41460434381264       20.74997386037968       33.04317084762486
H           28.58950994034828       21.31254935910433       32.91581417208138
C           29.55799085272234       19.43985193091499       32.66634890527052
C           30.57849096813137       21.14255025610612       33.60818139952327
H           30.75435883296155       22.12468073166033       33.99586620123710
N           31.44823364738918       20.16312253655382       33.61279946668141
C           30.82824943767117       19.09732646065353       33.03046630634820
H           31.33443335919513       18.16200927200875       32.91312153085513
C           38.65207734385939       19.12556492606867       35.66598025913137
H           39.43408100856514       19.66593147754311       35.13232986538547
H           38.61466655693390       18.10778834570641       35.29034689131628
H           38.91713816459631       19.09851385418956       36.72301590890188
N           37.08046136358239       21.06651443773820       35.85814043230544
H           37.73858719981074       21.68660374952245       36.30076973848951
C           37.33187851524644       19.77637503500888       35.46905544123594
C           35.79713268407988       21.34725477299985       35.53786027673470
H           35.32361637424689       22.28856122831171       35.72585077858719
N           35.22204449293400       20.31612196287420       34.97069525901299
C           36.16330045864398       19.33099196679074       34.92130511568035
H           35.93860563933840       18.37423577147465       34.49763333873561


--Link1--
%mem=16GB
%CPU=0-71
%gpucpu=0,1,2,3=0,1,2,3
%oldchk=1cyo_II_S.chk
%chk=1cyo_II_Sn.chk
# apfd/def2TZVP int=(grid=ultrafine) geom=check guess=read pop=nbo scf=qc

1cyo_II_S_nbo

0 1


