%mem=16GB
%CPU=0-71
%gpucpu=0,1,2,3=0,1,2,3
%chk=1bva_II_S.chk
# polar def2tzvp apfd int=(grid=ultrafine)

1bva_II_S 

0 1
Fe          28.02644461910463       89.64155419846144       51.34744757157766
N           28.99807887072225       91.23763093979937       50.66917503900192
N           29.12612008020545       89.63796963166754       53.02279855316151
N           26.95525402081635       88.10104476328145       52.06615846185062
N           26.67736667319507       89.80497378745554       49.83888368003067
C           28.71802803044643       91.94733081064649       49.54392749063383
C           29.51872614158424       93.15347701038235       49.48955178115996
C           30.33456487139787       93.11873118636154       50.57647612839411
C           29.92038290236011       91.96750181294796       51.35181193749559
C           30.15362476625780       90.48762146338767       53.30250305725099
C           30.72107067291333       90.18636855579921       54.59149116835989
C           30.14935214113048       89.00551826176279       54.99390461573976
C           29.14285597019735       88.69258305120962       53.99600327363039
C           27.17134982425024       87.44176360714593       53.23803100652675
C           26.18519198647365       86.41084941685052       53.44133268389002
C           25.38488989534796       86.42248181902156       52.33108285795241
C           25.88928183671921       87.49067815943292       51.48727952024731
C           25.74617482511545       88.87943714555358       49.47580065236620
C           25.14102051739346       89.23389375674398       48.21229194884215
C           25.98158358893516       90.15367279729537       47.65851024711510
C           26.85309891574314       90.58144578140099       48.73084358029151
C           27.71240141335047       91.66167720574276       48.63916305222885
H           27.64943216511932       92.27539141842445       47.75312257366275
C           30.45786924511645       91.63340964371956       52.57862018472169
H           31.21967572660560       92.28554960216476       52.97861940170976
C           28.21945572774089       87.67113630360906       54.11156011946087
H           28.30764253918489       87.00863665780386       54.95902953441875
C           25.29731688061861       87.85835222558482       50.29227140072287
H           24.48120532970397       87.25231795567267       49.92891228954542
C           31.37115597909906       94.09797933533433       51.01091039953936
H           31.06058664571131       94.61107311844302       51.92185822754291
H           31.54376447779008       94.84515381446272       50.24007684231825
H           32.31441312102606       93.59102309358001       51.21428973868885
C           29.46859367607064       94.14526255876045       48.37813233340565
H           28.47553201624604       94.58969837747850       48.31010737174067
H           29.69011946494120       93.66714904933281       47.42350778576459
H           30.18923642991174       94.94353634231524       48.53835902695827
C           31.74664886448294       91.00479961707327       55.29573119193052
H           31.55623803982026       92.06738554757067       55.15177458583283
H           32.74890478032780       90.78839832222371       54.92127812018537
H           31.72508790979492       90.78940088190443       56.36204841959395
C           30.39117084511840       88.23452169848257       56.19228756725599
H           29.53663854228437       87.69797026426723       56.58756551118756
C           31.55981140420091       88.12265310654755       56.81651536739125
H           32.45597283933417       88.58947011798942       56.44701769602781
H           31.66487646457733       87.53291896516420       57.71210867680499
C           26.06300358486350       85.57165173857030       54.66515050081601
H           26.27515678624116       86.16017555785545       55.55664519830365
H           26.76377426131138       84.73543221511780       54.63710294304053
H           25.05410722809097       85.17144996067790       54.74380091396556
C           24.23334036615040       85.60169880292885       52.02683010708990
H           23.44407787541031       86.08849525375300       51.46564439217387
C           24.08376864354341       84.32684663139641       52.37168112744819
H           24.85287524703704       83.77904360898341       52.88763947229373
H           23.19054181561913       83.77718204915470       52.12439928645713
C           24.00910951403413       88.49697326699101       47.58079040740468
H           23.15596131390821       88.46376285620640       48.25761598558717
H           24.29253307952322       87.47002874382666       47.34491177753558
H           23.69747209415143       88.98760221874606       46.66171946128765
C           25.91266391946546       90.80000437435140       46.31708557601510
H           25.52099447838222       91.81564532931493       46.39107899930541
H           25.26844608596538       90.23238743468201       45.64994298766478
H           26.90590864861686       90.85275159127626       45.87377212472683
O           26.60800000000169       91.04499999999879       52.42399999999680
H           25.87799999999315       91.24299999999846       51.83699999999678
H           26.72599999999617       91.36800000000318       53.24400000000628
C           30.21224285013053       85.68085659187209       48.08767245694752
H           30.77437576194898       85.99311186144543       47.20776399107285
H           29.24529389853500       85.30521800989278       47.76843185294108
H           30.75840870274147       84.87100458774118       48.57120132966137
N           31.06868618712744       87.52306427525713       49.55185363743697
H           32.04396645197667       87.34831696723421       49.37350337931154
C           30.01952907602429       86.81924543292878       49.02130511561029
C           30.55401519302680       88.48463755248189       50.35202006053105
H           31.14282071818700       89.19065922199262       50.90058261988288
N           29.24361438024052       88.43184991893088       50.36016706036817
C           28.89666296364657       87.40030289005583       49.53755239822948
H           27.86971526182257       87.14660130595861       49.37387916943675


--Link1--
%mem=16GB
%CPU=0-71
%gpucpu=0,1,2,3=0,1,2,3
%oldchk=1bva_II_S.chk
%chk=1bva_II_Sn.chk
# apfd/def2TZVP int=(grid=ultrafine) geom=check guess=read pop=nbo scf=qc

1bva_II_S_nbo

0 1


