%mem=16GB
%CPU=0-71
%gpucpu=0,1,2,3=0,1,2,3
%chk=1gjm_12_opt.chk
# opt uapfd/gen scf=maxcycle=999

1gjm_12_opt

1 2
Fe          45.88572414865695       19.84924874900096       98.22930765058310
N           44.72779022663507       21.15293589400614       97.28085049233445
N           46.85325242878577       19.44891185248847       96.53518320359890
N           46.99893507202687       18.48994538924022       99.17025559858419
N           44.90741186062843       20.22750116396981       99.91882918765477
C           43.86158302938041       22.03924137173843       97.83740231362076
C           43.20228370333538       22.81585498312377       96.81189010450120
C           43.66675226859336       22.34849727249853       95.61889229757662
C           44.63782778062052       21.32404525285895       95.93244159178398
C           46.48910486637813       19.84686112038825       95.28456835186331
C           47.42413152159026       19.35926154641581       94.30516739644423
C           48.39256121116285       18.67661084171241       94.99952384948773
C           47.99103744179978       18.71460806981811       96.39036174232577
C           48.12767284770899       17.88899116184348       98.69627937878917
C           48.66747674971973       16.98498945528100       99.67509341558831
C           47.80445890377656       17.00863648140644      100.74172497094348
C           46.79504628890132       17.99496020605018      100.42232350778693
C           45.03651579613996       19.56650028849546      101.10049116620341
C           44.22558820306610       20.19058148694977      102.12092927470398
C           43.63020496731036       21.26750908524820      101.53365467628676
C           44.05596703757691       21.26598251294510      100.15374415933084
C           43.57982885653611       22.13299766362017       99.18954598955898
H           42.88036195755204       22.89163738904080       99.50206510252919
C           45.43199902791306       20.69566103180147       94.99484877444900
H           45.26380176077807       20.94196422603441       93.95868103550156
C           48.62529940258806       18.03180304841446       97.41066736542898
H           49.52708803300404       17.49242612127213       97.16963198482860
C           45.87995055759624       18.49449836564358      101.33008262927848
H           45.89223376331577       18.07456617086017      102.32288223958851
C           43.31043553307155       22.76886219105735       94.23848165229556
H           44.17056417308130       23.21219242939195       93.73693973402685
H           42.50902792799993       23.50141144407932       94.25420012450326
H           42.98076975381199       21.91215160296442       93.65251076891821
C           42.20406129966016       23.88325406389415       97.08345002000922
H           42.61596831771534       24.63063923300771       97.76028639263681
H           41.31127898255177       23.46313261447127       97.54602757148992
H           41.91053432044676       24.37899989453811       96.16297247011470
C           47.29391263884015       19.54472083857579       92.83763673991101
H           47.67685884497130       20.51911006823789       92.53168444612827
H           46.25151943307230       19.48013753960619       92.53237833668308
H           47.85925782019631       18.77666069865180       92.31524278050760
C           49.56775854538225       17.99722610991353       94.49857495818364
H           49.86870843406380       17.11245567754834       95.04461442077782
C           50.28349163511301       18.38734822676388       93.44902570379266
H           50.05967816123769       19.28548354987942       92.90083367373362
H           51.14367544279482       17.82981299095540       93.12181482058286
C           49.88418356219490       16.15357037112101       99.48799128055278
H           50.72403049850255       16.76611125162201       99.16275577179502
H           49.71172863106148       15.38685940849514       98.73230606448946
H           50.15256399121575       15.65674608497782      100.41566172548519
C           47.88596927100524       16.21525744758180      101.95038615091151
H           48.88927978604482       16.01748929803178      102.30598197655677
C           46.84985677034279       15.69486280701203      102.59816354441861
H           45.83663958142535       15.80940430514414      102.25040515294732
H           46.98546412260659       15.10307951059490      103.48641986366373
C           44.12676288660214       19.70533147446318      103.52199884926539
H           45.09512428935317       19.77102983931495      104.01725956097499
H           43.80493897065786       18.66499479001890      103.54664047139163
H           43.41269396681225       20.29834692171054      104.08552667216068
C           42.70683758756449       22.27223536147394      102.12250929584376
H           42.58395725834826       22.10409098267012      103.18818321747867
H           41.72603539693734       22.21506599356475      101.65083916765445
H           43.09530847976112       23.27904558685718      101.97602009948210
O           44.42369469471389       18.25087406647835       97.76459954750453
H           43.59406180515667       18.30030955054244       98.25163087377405
H           44.76303062914801       17.35489717431699       97.86531477159389
C           47.57389345730257       22.68480198840365       97.40800442388706
H           48.47703412827019       23.27630574911159       97.52362000619195
H           46.70144183727032       23.32717439235876       97.47121486650090
H           47.57471308809984       22.14948497292416       96.46433737606515
S           47.46703304718833       21.50677163268461       98.79601258788179
H           48.59333128531892       20.84903166280638       98.49422261603507

C N H O S 0
6-31G*
****
Fe 0
TZVP
****


