%mem=16GB
%CPU=0-71
%gpucpu=0,1,2,3=0,1,2,3
%chk=1c52_II_S.chk
# polar def2tzvp apfd int=(grid=ultrafine)

1c52_II_S 

0 1
Fe          16.47585544027000       35.27501049381175       34.33247131798532
N           16.73853438467670       36.84870807071480       33.15875951722119
N           14.65243160811111       35.90581560589289       34.79345733930713
N           16.20636355068026       33.67094626396717       35.49447555323106
N           18.28692696111855       34.58764155009803       33.85838219219842
C           17.78461201894525       37.07854262097474       32.32292472592145
C           17.65119438130006       38.37101367376771       31.68714351631795
C           16.49711433998204       38.91244646368700       32.16154395550792
C           15.93511243614660       37.93905853740049       33.07148367955918
C           14.11812241119661       37.11765149822092       34.49502242118943
C           12.77473898015067       37.22362621925678       35.02092224401012
C           12.50251466456240       36.03134832555902       35.61568797907134
C           13.69198279220063       35.22243879248809       35.46565507483480
C           15.03234865555395       33.25021561108972       36.02594396696279
C           15.20551670535499       31.98819802335109       36.71643698931889
C           16.54110592958774       31.69286897835664       36.63432391629573
C           17.13860777507892       32.74642125474218       35.85367622473867
C           18.96842805098672       33.57160851634463       34.44706917122657
C           20.28588406908859       33.42843996298629       33.85789831344047
C           20.36295510747389       34.38257665067518       32.87674982049613
C           19.11876016744122       35.10625287887540       32.91512500088341
C           18.87363517214662       36.24458215100663       32.16388346150811
H           19.63095989235305       36.54632049742078       31.45635108092870
C           14.72405639376884       38.09105957422746       33.72171142501104
H           14.18936766323299       39.01668818274185       33.57228808999484
C           13.84839054130887       33.96594153031263       36.01853813786110
H           12.99619574211495       33.52910541032623       36.51629051041975
C           18.45091602137759       32.72539632228173       35.40867717870626
H           19.10119846661565       31.96322977385919       35.81005037208537
C           18.63149622842954       38.93511073529368       30.71644081094048
H           18.75838283336047       38.26439311696728       29.86631847135761
H           19.60552315017615       39.06916729969523       31.18825069629973
H           18.29656160840097       39.90034232715268       30.34476971004483
C           15.87589917628947       40.23194185211673       31.85477089039060
H           15.76089496084106       40.82000496307465       32.76532814573684
H           14.88802264340126       40.09832029783242       31.41257116645173
H           16.48960516825289       40.79655641771334       31.15712498509999
C           21.46624849294982       34.62431342262520       31.90702886706433
H           22.12052860377957       35.42696063105898       32.25179404438517
H           21.06805070986803       34.90783449148991       30.93416390015524
H           22.06385931675464       33.72224034260338       31.79014257232510
C           21.25928290276780       32.43365123101848       34.24692118738553
H           20.85256873919020       31.50028793225024       34.61866002955560
C           22.57980800670357       32.57845568221958       34.19281296877670
H           23.04510932973775       33.49624493603337       33.87872385038088
H           23.24483022413853       31.78371913279418       34.48756956708020
C           17.25191722897391       30.48486623433670       37.13746356683976
H           17.75891098698307       30.69610362436127       38.08071876876093
H           18.00032794617099       30.14759501700737       36.42191618597968
H           16.54191599848591       29.67720770751395       37.30305455967229
C           14.13674618941890       31.24416114020346       37.34418074966852
H           13.17202059079168       31.31717784616162       36.85475878354193
C           14.24686294449685       30.50619478417874       38.44410685168407
H           15.16617801390761       30.43600177866445       38.99862326288557
H           13.40584684797770       29.96463104786601       38.84460039110178
C           11.26348316626830       35.58107591045207       36.31063866833827
H           10.49163542484624       36.34511033811846       36.26071492994062
H           11.46963913405131       35.36878788800751       37.36010289319272
H           10.87607393586057       34.67084052153803       35.85240270914266
C           11.91216552813943       38.43164087255375       34.88752558145167
H           10.96752174360068       38.29186811545762       35.40729199864325
H           11.69871492827301       38.63931828275695       33.83819640367201
H           12.41085739713810       39.30405748021325       35.30926200924463
C           15.12159492764858       31.40059416805661       30.56589328465014
H           15.39973649721110       31.57265395910396       29.52613516922546
H           14.10208062957758       31.01556442391745       30.58665558133992
H           15.78518004903719       30.65042732975929       30.98427004017537
N           14.50367174823153       33.77773980739755       31.05167340017975
H           13.84929869760567       33.86896201630569       30.29199898115045
C           15.22735705537825       32.65408354187328       31.35468941757290
C           14.82759068382680       34.73008921340768       31.95483641256763
H           14.41408654326578       35.71716109472791       31.96520997927242
N           15.71111255178099       34.27732428128533       32.80980046577427
C           15.97065467686821       32.98879577775903       32.45020295622903
H           16.66950922923998       32.39341629541281       33.00021269519033
C           16.18680934123825       35.64937122245090       38.39466877185045
H           16.28894459456994       35.07925867031599       39.31591671090646
H           15.43956802058595       35.16987433341227       37.76842313555642
H           15.84214254425166       36.65192675437124       38.63660127715879
C           17.51542791033564       35.70964533935940       37.66733491885555
H           17.87958160086297       34.71166109154311       37.42662006418625
H           18.26072909682661       36.24398115008416       38.25772698755854
S           17.32252346924768       36.63605826273338       36.09269958231162
C           19.08649756236854       36.91962935210665       35.75382617574641
H           19.14703715891256       37.37748808796788       34.77233375479319
H           19.62113090632973       35.97493360732486       35.75261148061399
H           19.48941407975442       37.59102338470488       36.50776540602582

--Link1--
%mem=16GB
%CPU=0-71
%gpucpu=0,1,2,3=0,1,2,3
%oldchk=1c52_II_S.chk
%chk=1c52_II_Sn.chk
# apfd/def2TZVP int=(grid=ultrafine) geom=check guess=read pop=nbo scf=qc

1c52_II_S_nbo

0 1


