%mem=16GB
%CPU=0-71
%gpucpu=0,1,2,3=0,1,2,3
%chk=1a6k_12_opt.chk
# opt apfd/gen scf=maxcycle=999

1a6k_12_opt

1 2
Fe          14.70057928722865       27.94114149141321        4.75032816833904
N           14.89893315309887       29.26692773624187        6.23584968941231
N           13.79740959983384       26.66856143009693        5.99449986146920
N           14.55530894120923       26.60094100355974        3.25736684271956
N           15.65092852559385       29.20335531187963        3.50700683790786
C           15.53014805457793       30.47218905861547        6.18543196871641
C           15.45389564190930       31.14069641336406        7.46494063378087
C           14.74574827527196       30.31619001602436        8.28637060214237
C           14.41153806575219       29.14858916658605        7.50251711338699
C           13.45631368326181       26.89954045141901        7.29249049728248
C           12.81531284915789       25.74472526585145        7.86536785129509
C           12.78982054703531       24.78947804836598        6.88007396443741
C           13.39436930991222       25.39982679989618        5.71337385876387
C           14.04049579854239       25.34049903318556        3.34391458532756
C           14.09043233189942       24.68183436515005        2.06530338693653
C           14.64091536980672       25.58350438694940        1.18869378787899
C           14.91732008222616       26.77750149749589        1.95883281992743
C           15.86695622197867       29.02959356906271        2.17260366053217
C           16.54753732329990       30.17517047836935        1.61570549944180
C           16.74403734085701       31.04559592262779        2.64719619120488
C           16.16879923515613       30.42648912667542        3.81709580920410
C           16.13375107308367       31.01649655210735        5.06693773777707
H           16.59085861221854       31.98768853355397        5.17084691421657
C           13.72534996898348       28.05946103544550        7.99753386838689
H           13.40788314044230       28.10077773542661        9.02723376433936
C           13.52218065783915       24.76760805594221        4.49227946037720
H           13.17415885408934       23.74939850636049        4.42097547834662
C           15.52422724383050       27.90752916777909        1.44351317380603
H           15.77332336368830       27.90508634904645        0.39447966297564
C           14.36738353629319       30.50438336307067        9.71180862191791
H           14.70481373969739       31.47001996002045       10.07679151658053
H           14.81593021123550       29.72812329638530       10.33092156857674
H           13.28594403799765       30.45029009048890        9.83169530087602
C           16.05493232372702       32.47031277127557        7.75247497851037
H           15.61992400180043       33.23668334627767        7.11133389628338
H           17.12952065123445       32.45075919195064        7.57437382042308
H           15.88551479571005       32.75381293665572        8.78696372159361
C           12.25917640821958       25.66921325384768        9.24032860387671
H           11.79636870005424       26.61269562936526        9.52309290533875
H           13.04523922438156       25.44869690324153        9.96328138856443
H           11.51145255754678       24.88166154652439        9.29716070667665
C           12.25355231959394       23.44627716318798        6.92594390414658
H           11.81380530019916       23.08251966050816        6.00568267642290
C           12.27614523025294       22.65282031721432        7.99190546708510
H           12.74673994414201       22.94383326098575        8.91436219844382
H           11.85009040293864       21.66493661794169        7.96291931421733
C           13.57123344174594       23.31891208336747        1.78287529000547
H           12.64748860453092       23.13446122055930        2.32787193866054
H           14.29497241408344       22.55946173664621        2.08072147802698
H           13.37629814984002       23.20819219648983        0.71890577801812
C           14.89981806898199       25.44027733833290       -0.22831768395518
H           14.77052492459613       26.33725758263898       -0.82100892869995
C           15.28279561535999       24.31570448023722       -0.82332971345296
H           15.47351790850383       23.41091489942764       -0.27328272658122
H           15.44962260921071       24.27343637332654       -1.88569015463819
C           16.93395126975551       30.30702320580133        0.18619475965201
H           16.05593964250478       30.23871057749257       -0.45520942197076
H           17.62315155756585       29.51266747759403       -0.09900078950868
H           17.41820416228996       31.26179542102900        0.00340131774502
C           17.40399488098707       32.37842371682244        2.64269829852458
H           16.70283674606404       33.15601974783692        2.94469681286898
H           17.77656852287614       32.62050843528328        1.65180245821517
H           18.24331919256793       32.39246289474525        3.33711383448781
O           16.69506171229966       27.05110330703876        5.29158100590159
H           17.01256887021059       26.37560014438646        4.68318774173903
H           17.40409607546998       27.69203276485275        5.40735020624711
C            9.39657782127649       28.74678819507662        3.21456776038857
H            9.21767521198336       29.16074307981574        2.22295044768435
H            8.72417890343239       29.24151868048298        3.91421311650079
H            9.16219481820878       27.68736194673751        3.19629469904226
N           11.37617595712410       30.18256783597124        3.74612783867542
H           10.90622567851428       31.06002797912768        3.58609203462657
C           10.80905455766877       28.94321635893005        3.61729089170346
C           12.65782328478537       30.01874655862796        4.11989768359639
H           13.34368238228001       30.82261644414830        4.29537940564880
N           12.94434335572173       28.74107677281883        4.23782619095297
C           11.80312782688950       28.05876585557466        3.92823378744835
H           11.76990989587407       26.98916887131202        3.94876036260650

C N O H 0
6-31G*
****
Fe 0
TZVP
****


