%mem=16GB
%CPU=0-71
%gpucpu=0,1,2,3=0,1,2,3
%chk=1a6k_16_opt.chk
# opt apfd/gen scf=maxcycle=999

1a6k_16_opt

1 6
Fe          14.73219723364384       27.89869750416882        4.79056848384707
N           14.95706827485331       29.23788870531484        6.29333243053663
N           13.84740812035967       26.59205066387731        6.08354167326226
N           14.58661448146592       26.55065309949673        3.29720567081919
N           15.69171206637067       29.19810363881307        3.51688827457932
C           15.50750479144175       30.47844676792647        6.21701109075005
C           15.45647710895116       31.13636340745689        7.47847053323098
C           14.84823961646820       30.25068976053716        8.35465362378174
C           14.54493487950444       29.07844075039722        7.59454308868849
C           13.60689866885131       26.79104599430507        7.40531575455243
C           12.98129671336226       25.63044987318131        7.98799242512951
C           12.85242587004071       24.70603898020691        6.97754083678413
C           13.39504829915847       25.33262841202285        5.77889318397826
C           14.01663292116395       25.30927906573973        3.37122112600950
C           14.05120551242942       24.65597551638648        2.12326547414038
C           14.68432088867271       25.54350893827652        1.23083069382509
C           14.98843934344567       26.71813542815731        1.99828392408802
C           15.94651234272768       28.99734149059324        2.20422262984188
C           16.59389482619332       30.16056582493507        1.62966310452263
C           16.71233151870370       31.07576439548780        2.63401592274196
C           16.13995456394931       30.46680430190622        3.81976923384250
C           16.06231850997091       31.05764306325298        5.04871723736234
H           16.45614152380120       32.05658534152929        5.15278522472543
C           13.92330126212271       27.94599449714735        8.11170333901999
H           13.67599620286694       27.96757181714043        9.16138852287364
C           13.47139263821216       24.73771850491900        4.55312470855621
H           13.09849883628825       23.73013997321739        4.46047730645101
C           15.63118047053655       27.84660581098404        1.49206432091648
H           15.90146437853728       27.83265076532136        0.44848433163686
C           14.55235210179027       30.42943017233292        9.79927402548137
H           14.86490026883579       31.41173753559054       10.14112006587859
H           15.07498028033087       29.67863788792442       10.39183358193238
H           13.48451462952911       30.32273965767560        9.99007051589505
C           15.97253280473319       32.50457310981731        7.75113568847388
H           15.48972229355755       33.23588815141571        7.10311115758517
H           17.04649539745676       32.55287272955926        7.57148540227509
H           15.78780877715037       32.78865488703112        8.78289782712160
C           12.52315252338134       25.52472955762100        9.39624312654378
H           12.13578820541413       26.47800017055082        9.75008524387532
H           13.34724714228096       25.23336880910473       10.04854149006188
H           11.73871945492530       24.77613749313095        9.47970634048106
C           12.28402216578461       23.38133106669678        7.01947138716679
H           11.80743410727581       23.04763748071278        6.10635875405667
C           12.32100512090146       22.56070765320759        8.06771474431187
H           12.83377673454688       22.81328129905043        8.97874154313386
H           11.86750973774867       21.58547461904617        8.02836342444665
C           13.45528285316770       23.33163659857158        1.80817470420381
H           12.60239828040632       23.12464392436398        2.45056769108761
H           14.18455561071377       22.53232056511226        1.94959497948498
H           13.12033503099961       23.30919659936233        0.77351969228285
C           14.97402349016534       25.37179498555220       -0.16164160968118
H           15.07876290827038       26.28517684276230       -0.73395146848330
C           15.14436565362913       24.20581156205731       -0.79462754516173
H           15.12383842420318       23.26018145107518       -0.28464750515635
H           15.35187397829152       24.17542441628749       -1.85009656020181
C           17.01461554117050       30.26330675499445        0.20816649191171
H           16.15192788316988       30.17382669776516       -0.45163588496128
H           17.71476041546405       29.46668599735996       -0.04197880198048
H           17.49654135381782       31.21704938795489        0.01430845117015
C           17.29829926460019       32.44011794882410        2.60009266081867
H           16.55002916246330       33.18261827146031        2.87564137519296
H           17.66981537672388       32.67877494590286        1.60793669943275
H           18.12483615914092       32.51831657073298        3.30575462260857
O           16.99976620453160       26.95745041471748        5.36591538679702
H           17.38454605961539       26.40427437775577        4.68064218720813
H           17.65404017259125       27.62206224196017        5.59778443150916
C            9.41464697221616       29.18282987136319        2.32657080504443
H            9.31464107176819       30.10292847640125        1.75169292560882
H            8.51717664082135       29.06296501321854        2.93262777595823
H            9.48285954976620       28.34728180228385        1.63706174636671
N           10.81434469933412       30.18553086323950        4.14383385868298
H           10.17293747198143       30.93205503768677        4.36010834844116
C           10.62396332686181       29.22775516413532        3.18292441904181
C           12.00101426482454       29.94328748892499        4.73571304668395
H           12.40695887734911       30.53920253004041        5.52803192896165
N           12.58087675851339       28.89121345756032        4.21415942202985
C           11.73536922842070       28.43465842962643        3.24518198164053
H           11.97922370526914       27.57163673777034        2.66044525422101

C N O H 0
6-31G*
****
Fe 0
TZVP
****


