%mem=16GB
%CPU=0-71
%gpucpu=0,1,2,3=0,1,2,3
%chk=1cpt_II_S.chk
# polar def2tzvp apfd int=(grid=ultrafine)

1cpt_II_S 

0 1
Fe          36.64235052579309       12.93191319613315       86.94316841542191
N           34.69848328073977       12.98561282123200       87.44077761297081
N           36.19381658730341       13.72422944876936       85.15703162889170
N           38.57950103682291       12.93855484169695       86.45709743068919
N           37.10137366665455       12.30508620646690       88.78065440369103
C           34.16196149720255       12.69152319325679       88.65608009359759
C           32.73044834268334       12.89176527775271       88.64335691841195
C           32.41410060665053       13.31132508375023       87.38839499468669
C           33.66014560580474       13.39065782199903       86.66045577943308
C           34.95993124716809       14.05680499513416       84.69070030175642
C           35.04481413109308       14.57157291183462       83.34207696849820
C           36.36669814278915       14.58990916549920       83.02371875412267
C           37.06838413427362       14.05779966893314       84.17103078679470
C           39.13833994950183       13.40368608345694       85.31188360800918
C           40.56642513229353       13.15838382834495       85.30132057764089
C           40.84847190121099       12.52267806979186       86.48124628213489
C           39.60022190444020       12.41899167543615       87.19266559759284
C           38.32100230040129       11.90759864011851       89.22099022021948
C           38.25062218781399       11.46949738300878       90.60241940544014
C           36.93874022493741       11.59392072361796       90.97024755921896
C           36.24383089551039       12.11160051303657       89.81770511220518
C           34.87390772726346       12.29618088292969       89.77098576988763
H           34.31246215115151       12.09531440851452       90.67011111740058
C           33.77484478337077       13.92318042482745       85.38956491715811
H           32.86749292220961       14.23613951858914       84.89690882840455
C           38.44227993311907       13.93716140908483       84.24259769737976
H           39.01277882386240       14.25649586147649       83.38437699414877
C           39.48413854530996       11.92436809262676       88.47895286293306
H           40.37620405358096       11.53377493185533       88.94303207592560
C           31.83809485519415       12.65252121630039       89.81212159434619
H           32.11329984012987       13.30154316083233       90.64392898086678
H           31.91751575892362       11.61909076576880       90.14978416388230
H           30.80087485992123       12.85065710331826       89.55358810359753
C           31.08436663341932       13.66679327575424       86.81774959352691
H           30.88955260628732       13.09075669977726       85.91317796212998
H           31.04728662766480       14.72551559330591       86.55853479073915
H           30.29053796242579       13.46282208771601       87.53192550613960
C           36.32135581290446       11.34709144018037       92.30199469530274
H           35.57717804812894       12.10888579197590       92.52997862790119
H           37.08606868532625       11.36376460018962       93.07596820819083
H           35.82790348403893       10.37424883543840       92.32696643462604
C           39.38171824624042       11.01846926852463       91.38315371843862
H           40.32731283876354       11.49671118748676       91.15561263296898
C           39.34223042891867       10.08456752589971       92.32757012135831
H           38.44179741987850        9.54377818484206       92.56070509287035
H           40.22301285391220        9.80729772919860       92.88258673627598
C           42.17315458609137       12.09147071783627       87.00484097336098
H           42.30866379570851       11.01662154841718       86.87516841016749
H           42.26071245796219       12.31531217878294       88.06680391791181
H           42.97087209751385       12.60662579225666       86.47385592588921
C           41.45824995241829       13.54427226915321       84.22976465984702
H           41.20611581726352       14.46821960682184       83.72182808979680
C           42.52646124672248       12.86058230963750       83.83325526647948
H           42.79453134124208       11.91411742334882       84.26937304841164
H           43.15716606942820       13.21428272885672       83.03461889259955
C           37.02977344535346       15.03435624032116       81.76601412089884
H           36.29377458632548       15.35846096419024       81.03438173336161
H           37.61336771802168       14.22262024739480       81.33124547173840
H           37.70502249523429       15.86708255822385       81.96425206094059
C           33.87084847907795       15.00472247905329       82.53316769917511
H           34.18215498706075       15.32514414983859       81.54212722643661
H           33.35794714613395       15.83666236766596       83.01665712957531
H           33.15776576454812       14.18750449972171       82.42150572866699
O           36.73000000001880       15.01999999996228       87.72899999998081
H           35.83299999999630       15.19400000000818       88.01399999998365
H           37.41900000003594       15.57799999999512       87.79099999999960
C           34.88134971392515       10.52520329148905       85.30266171613937
H           34.90345574537585        9.63973852009831       84.67505044716846
H           34.65655291507512       11.41518292083994       84.72532896223008
H           34.14869597145161       10.40576507810072       86.09367022731224
S           36.50385224844019       10.71974179172908       86.12092592347337
H           37.18876632002922       10.90293678508487       84.98603514470514


--Link1--
%mem=16GB
%CPU=0-71
%gpucpu=0,1,2,3=0,1,2,3
%oldchk=1cpt_II_S.chk
%chk=1cpt_II_Sn.chk
# apfd/def2TZVP int=(grid=ultrafine) geom=check guess=read pop=nbo scf=qc

1cpt_II_S_nbo

0 1


