%mem=16GB
%CPU=0-71
%gpucpu=0,1,2,3=0,1,2,3
%chk=1ccj_II_S.chk
# polar def2tzvp apfd int=(grid=ultrafine)

1ccj_II_S 

0 1
Fe          28.45509883874204       93.97027997579103       52.80553510703955
N           29.41732835520864       95.61023439357217       52.21706893626754
N           29.54488981472866       93.91386180818706       54.49235232231111
N           27.38795469803635       92.40439441330055       53.48742463313120
N           27.29842767843015       94.03386666927193       51.18274225322445
C           29.16554541006115       96.33926415280568       51.09721243072229
C           29.96742839772170       97.54125350753836       51.08158503082311
C           30.74709958261883       97.49653311504977       52.19683688765643
C           30.37135816868308       96.29476472367472       52.90656636525826
C           30.51521083048912       94.80024814264829       54.85226711977914
C           31.12118524610366       94.41993054692307       56.10237555105321
C           30.52613701318520       93.24341687661406       56.47523003103191
C           29.51127122424293       92.97686993157072       55.47292580721133
C           27.61416083311147       91.68280600310652       54.61919155916969
C           26.64964291585322       90.62076650807489       54.75657040733608
C           25.83458739847120       90.69912485971400       53.65884030513576
C           26.34647485725348       91.79817173015560       52.86248231763601
C           26.35612201836514       93.13223988406008       50.80818157239827
C           25.93625277849331       93.36554243901701       49.44314681586127
C           26.57197867185641       94.49787944116784       49.04027703470735
C           27.43323362172571       94.89084228919333       50.13560448158634
C           28.28084249012227       95.98156794393336       50.09494936939110
H           28.23536891214409       96.61642458304662       49.22296794388942
C           30.89839764249701       95.91630251647697       54.12618755125157
H           31.67259669735016       96.54105766939853       54.54543996709062
C           28.62106037686386       91.92431127462902       55.53576877195606
H           28.70980373259214       91.24074722848518       56.36592481399975
C           25.85768979185956       92.12380412938934       51.61050904775541
H           25.06671317799773       91.50997368000651       51.20669125845604
C           31.76398686327386       98.47461568748315       52.67819459309109
H           31.88959985858552       99.28490539142479       51.96427573545986
H           32.72936296215001       97.98710155579559       52.81579133295094
H           31.46414294854261       98.90358652693600       53.63506645908663
C           29.91785901576040       98.57160613062194       50.00578542914450
H           28.90088852551015       98.94247871578723       49.87874927868756
H           30.24394514771053       98.15019978023251       49.05435017232148
H           30.56207685011699       99.41391326929285       50.24584579597221
C           32.15846126410856       95.20428469369575       56.82824924251711
H           31.96647351478806       96.27241617408609       56.73722348236716
H           33.15415884295933       95.00507357035617       56.42774911964296
H           32.15441567579604       94.93941160400350       57.88364490324014
C           30.76364430591277       92.43168547027580       57.64713314152863
H           29.89942267829763       91.90970539846727       58.04046283841427
C           31.93661787133401       92.27236452360820       58.25248234323517
H           32.84007145832008       92.72455446243596       57.88265615254444
H           32.03713773048408       91.65730429535876       59.13139863711827
C           26.54613507666155       89.70143286121461       55.92340769531647
H           26.77764880742343       90.22475178439122       56.84970620722104
H           27.24284305185647       88.86729824604976       55.82355713710183
H           25.53732084529700       89.29961793061078       55.99400064278531
C           24.68768527435402       89.89264449824933       53.30498172838457
H           23.90490715714934       90.40935628564445       52.76140746149053
C           24.53198321372334       88.60245136896917       53.58468715744097
H           25.29464296393307       88.02685987527087       54.07915528768905
H           23.63963645123210       88.06860563333417       53.30203830681130
C           24.94519575867393       92.52519274044849       48.71324452951588
H           23.96030049096191       92.60265226873710       49.17544430731277
H           25.24471852918625       91.47752187147115       48.73217794726175
H           24.86101786821111       92.83943641231386       47.67577711304369
C           26.49049982926516       95.21261355562152       47.73499908940604
H           25.76908159332726       94.73466725958833       47.07675486823261
H           27.46074898230377       95.21850442854451       47.23739446250506
H           26.18234893466864       96.24742193562828       47.88566776526200
O           27.05599999999733       95.44999999999888       53.81299999999074
H           27.45600000000290       96.28600000000205       53.57200000000991
H           26.35899999999936       95.33700000000044       54.35299999999709
C           30.94688155216574       90.05045701194058       49.71467816012147
H           31.53383471962592       89.29277632482885       50.23382102523855
H           31.50524582482542       90.37091603297823       48.83529876716279
H           30.01216559394602       89.60384713150380       49.39070592993129
N           31.65578492906199       91.99512981061039       51.12364341882087
H           32.64298240081905       91.88297591972962       50.96098015575991
C           30.66406568151842       91.20300176441566       50.60712931618091
C           31.06664415174968       92.94585324105032       51.88357330414964
H           31.59967157716790       93.70782489890135       52.41367399633086
N           29.76311218603542       92.80362121570772       51.87966464567180
C           29.49757233943364       91.72255580221604       51.09111572223642
H           28.49222069049060       91.39407367532411       50.92588529562565


--Link1--
%mem=16GB
%CPU=0-71
%gpucpu=0,1,2,3=0,1,2,3
%oldchk=1ccj_II_S.chk
%chk=1ccj_II_Sn.chk
# apfd/def2TZVP int=(grid=ultrafine) geom=check guess=read pop=nbo scf=qc

1ccj_II_S_nbo

0 1


