%mem=16GB
%CPU=0-71
%gpucpu=0,1,2,3=0,1,2,3
%chk=1aom_01_opt.chk
# opt polar def2tzvp apfd int=(grid=ultrafine)

1aom_01_opt

0 1
Fe          13.75547813723342       28.96978321067764       74.90947179764153
N           15.26800363006733       29.82761100836363       73.91077649517045
N           12.45070894392039       30.09631311612834       73.88718869606447
N           12.23902384319346       28.11278063941024       75.90044144496738
N           15.06632261656826       27.84760744059482       75.93303463373073
C           16.59135487182493       29.54024322342303       74.03017491629750
C           17.37622096188506       30.36732831151716       73.13974192551727
C           16.49221579533446       31.16569360345163       72.48345664999077
C           15.18016448608144       30.81019768572376       72.97787406399922
C           12.73883022891320       31.04814631786963       72.96209662927897
C           11.52598946747706       31.65109447055946       72.45370781698159
C           10.49677305005887       31.03388502704957       73.09319894857173
C           11.09668288888937       30.06656870120008       73.98640359176017
C           10.91463112389055       28.33657832941686       75.71789685551099
C           10.12751357844673       27.53220984054017       76.63351506591354
C           11.02918128435793       26.81147441509844       77.37154802858433
C           12.33527769167224       27.18981910262693       76.89499992232751
C           14.78228123071345       26.96413703049650       76.92291594386946
C           15.99875596141028       26.36545601732943       77.43985166353315
C           17.02376641326476       26.90530142667259       76.70765845983796
C           16.41783642095997       27.82786929913502       75.78253352240733
C           17.13640945331505       28.60701265337195       74.89019300116257
H           18.20993824836425       28.49100965726926       74.87964073358265
C           14.00726047118490       31.39448668440800       72.53446950966827
H           14.08801548467954       32.17276653374727       71.79030804119866
C           10.37011191191458       29.24574452788879       74.82870770563559
H            9.29462304045506       29.33750266037315       74.80279457683082
C           13.51693807392672       26.66640475454217       77.39193676690439
H           13.44130873712170       25.96177595517009       78.20645384143391
C           18.86097763218465       30.30300973423276       73.01929397947181
H           19.17815794401535       29.30400577380891       72.71877257065036
H           19.33549577289750       30.53401989295962       73.97366173126422
H           19.22081764265177       31.01316187971679       72.27857665878065
C           16.74921754541834       32.21213674054098       71.45291514835829
H           16.37455492246755       33.17972963317570       71.78781984471706
H           16.24782968894764       31.96266169484117       70.51710326561653
H           17.81413151535639       32.30765829114251       71.25462006319263
C           18.47630945014734       26.58105977499911       76.77013611931163
H           19.01784085857981       27.31983939206947       77.36408034124395
H           18.91097700058923       26.56790325905014       75.77167470157292
H           18.62117176028969       25.60337421682170       77.22555742805399
C           16.05045881485283       25.37624402331015       78.49236377936450
H           15.19902973876179       24.70756995428921       78.54930690999628
C           17.03338285736402       25.23624112411925       79.37672650752843
H           17.88076977415534       25.89881014384617       79.40249970109758
H           17.00986178652670       24.46365674263638       80.12756188302527
C           10.75868576504577       25.77635304330698       78.40770410597649
H           10.86503168305835       26.19216352583208       79.41120432231546
H           11.45493509924643       24.94412837298085       78.31355060515324
H            9.74514563221861       25.39517927167895       78.29935567749492
C            8.68293330471271       27.51966800082290       76.68592623957238
H            8.17980256979529       27.68258211339000       75.73941284128118
C            7.94905476930685       27.33691843247818       77.77935803338687
H            8.39117949770751       27.21891372399462       78.75319757256156
H            6.87217874039397       27.32531250096516       77.74001050069970
C            9.02926157175046       31.25786854343312       72.95691136521212
H            8.59737028642702       31.56288876935474       73.91056542271133
H            8.52943670980398       30.34272751428941       72.63805572132011
H            8.82189135717518       32.03395760225480       72.22395100051875
C           11.48864918548151       32.73218517189750       71.42757980237262
H           10.46469695932207       33.03272394020972       71.21881282152451
H           11.94312348394702       32.39476212389935       70.49526338058644
H           12.03922323797973       33.60746422029836       71.77319049627873
C           12.65962719734967       32.91013026047879       78.72163376452920
H           12.99160135284927       33.92810803526381       78.51695999928123
H           12.87685495688055       32.68430938855509       79.76569299632311
H           11.58599912741066       32.85703303523689       78.57046914164685
N           14.69775589113400       31.78823972055147       77.79390649122776
H           15.35858347466082       32.29272100860381       78.36160369234335
C           13.33596737521325       31.94269235298779       77.82066224429676
C           14.98325205718535       30.83824981609203       76.87475600665816
H           15.97428368698778       30.50927202586852       76.63931252567387
N           13.88766566713168       30.38330565754603       76.31913447268677
C           12.85470640385330       31.06046733609078       76.89656875201788
H           11.84139376675041       30.86846731561875       76.61087428768745
C           13.34769137749498       24.13529474760696       72.12997501925221
H           14.20576623627917       23.80856178694180       71.54240782464977
H           12.44579785846867       23.95714609852686       71.54414915454015
H           13.29798276595857       23.53798993856951       73.03500847183878
N           13.56229117489683       26.56136350241675       71.54547625538723
H           13.55781536965997       26.42602625689387       70.54790683026106
C           13.46938599389828       25.57111576748331       72.48882743624381
C           13.65967775820567       27.74115231099322       72.19957052539455
H           13.74574140175760       28.69152645678719       71.71466708640280
N           13.63405442324025       27.55834572858887       73.49644839179940
C           13.51598169731817       26.21418777129573       73.69219638966699
H           13.47292037967980       25.80261289428369       74.67908044958321

--Link1--
%mem=16GB
%CPU=0-71
%gpucpu=0,1,2,3=0,1,2,3
%oldchk=1aom_01_opt.chk
%chk=1aom_01_nbo.chk
# apfd/def2TZVP int=(grid=ultrafine) geom=check guess=read pop=nbo scf=qc

1aom_01_nbo

0 1
