%mem=16GB
%CPU=0-71
%gpucpu=0,1,2,3=0,1,2,3
%chk=1aa4_05_opt.chk
# opt uapfd/gen scf=maxcycle=999

1aa4_05_opt

0 5
Fe          28.40022303188526       94.18023176103523       52.92942706836148
N           29.22669248457893       95.90994647292169       52.41728731188788
N           29.41466587702982       94.18553270919109       54.69510442537317
N           27.44099207162411       92.42037288376714       53.50429868574912
N           27.22936416971814       94.22922156657339       51.25111712262009
C           28.99052420264220       96.62981008775459       51.27872917115769
C           29.82129629505170       97.79418667546403       51.24818663968354
C           30.56828656421412       97.77407867208966       52.40310309212294
C           30.17902504774206       96.59937649248985       53.12068482899255
C           30.31191405692952       95.12936397368793       55.10454392282962
C           30.82906256614864       94.79217178351550       56.40249963204998
C           30.23042754288630       93.61017114955560       56.77117294363976
C           29.34134974487415       93.24422564145185       55.68272373228953
C           27.75680413758541       91.66117950031591       54.59953255623476
C           27.11160036052581       90.40485326996878       54.53069597567186
C           26.37580108637574       90.40060799895495       53.33768275713460
C           26.59322183184185       91.68061655489677       52.73742248367162
C           26.32408046424686       93.28204417008665       50.85828428049191
C           25.73117473442903       93.67055312473695       49.59719782238221
C           26.30907239323147       94.85326773653301       49.23833609838199
C           27.25239479909494       95.18656182613628       50.27917187210159
C           28.06797597813822       96.30016459202500       50.28479876149996
H           27.99185028231730       96.97549007442551       49.44679010546896
C           30.68214486518546       96.24098496938302       54.36855189743642
H           31.42368322786199       96.89639687920597       54.79844755170913
C           28.60891610199151       92.07932187234033       55.63902510902998
H           28.71587878578487       91.39975883041919       56.47068096147886
C           26.03589138765093       92.10928488210750       51.52362997267852
H           25.33117035390491       91.44320734238188       51.05094275838074
C           31.58833317090329       98.75326747580081       52.87335485618353
H           31.27644984043192       99.20996503042322       53.81314298618484
H           31.73313852112272       99.54358851604795       52.14140725312183
H           32.54582263882866       98.25923495710381       53.03910669375984
C           29.82736066307953       98.79982026213047       50.14855867245603
H           28.84440054018094       99.26006466587816       50.04428686804500
H           30.08178301080186       98.32795743132908       49.19923035600043
H           30.55266836612800       99.58489130132706       50.34565767231632
C           31.77059637905603       95.63303526084111       57.19036428845254
H           31.56485582034432       96.68973464502990       57.03007584368306
H           32.80358603166344       95.44160070337635       56.89515640105755
H           31.66984211685390       95.41407421557240       58.25141251133146
C           30.38450261509315       92.85180556102829       57.99012472657966
H           29.50363570545463       92.31157223238213       58.31712079540412
C           31.49814209282529       92.76192607622673       58.71290115817783
H           32.41732914674017       93.23313508399811       58.41248961087446
H           31.53204329480634       92.18586112914262       59.62253518104192
C           27.15898985392323       89.34051730199599       55.57205784396807
H           27.29158948578116       89.77410350086296       56.56164134129337
H           27.98568259929815       88.64765654094222       55.39812218411277
H           26.23118347625335       88.77163677072872       55.56665572593344
C           25.57027885267794       89.35368277828682       52.77143003712832
H           24.79118169218547       89.68122360051318       52.09281323065961
C           25.71216355499673       88.04266382915368       52.97726476454869
H           26.49053236142290       87.63312446508183       53.59608383717509
H           25.05377235566827       87.33007521484188       52.50931760235085
C           24.69604556713489       92.87478244128501       48.88004735373188
H           23.81903010871469       92.72931475828973       49.51103419696805
H           25.08589201319209       91.89185879842805       48.61393866243520
H           24.38333200314161       93.37736378644455       47.96841608127433
C           26.07046653161276       95.68937450783149       48.02903976834551
H           25.30127931689422       95.25107136523724       47.39825304983314
H           26.98508250139117       95.78112683181658       47.44314471600964
H           25.75207156415856       96.69163582046680       48.31547160089622
O           26.33463734861327       95.13344419075642       54.07190510512753
H           25.71737848484461       95.07922095810174       53.33570779263528
H           26.13994093612891       94.39276819857122       54.65502856758378
C           28.85139916697663       89.22950696779267       50.60084872501021
H           28.03067992681892       88.81700731309807       51.18947532888570
H           29.61573024977453       88.46121714360628       50.48741962974000
H           28.47050612889210       89.49605316189330       49.61970467031382
N           30.09267324477376       90.37592234192712       52.44864629794756
H           30.29251435003957       89.53767384348734       52.96905991757373
C           29.40092404429717       90.43579906527201       51.26695159208232
C           30.39783101516353       91.64158720153222       52.80578005483501
H           30.94471681493321       91.89220183161267       53.69201514489693
N           29.94586623777267       92.50590644519234       51.93125872579235
C           29.33514857300131       91.76438698263554       50.95914602003457
H           28.89050523965559       92.23457400117282       50.10632501575127

C N O H 0
6-31G*
****
Fe 0
TZVP
****


