%mem=16GB
%CPU=0-71
%gpucpu=0,1,2,3=0,1,2,3
%chk=1aom_05_opt.chk
# opt uapfd/gen scf=maxcycle=999

1aom_05_opt

0 5
Fe          13.75133274941983       28.97737892098916       74.91663164152770
N           15.25581559970465       29.82050089110061       73.91806639048963
N           12.46818410288275       30.10315538174848       73.90095710421693
N           12.24807754581824       28.13743434726861       75.89261339030689
N           15.05129662110382       27.86659790642396       75.93424089844831
C           16.54416219172478       29.35608599910220       73.84152584904888
C           17.32238498520272       30.20186578893242       72.99039862616353
C           16.49080658148024       31.22104393423842       72.58537653839632
C           15.20714579726643       30.94898558672368       73.15265166368482
C           12.75667623395236       31.22045427991178       73.15654776172424
C           11.55855107907662       31.76964738365360       72.61132765045765
C           10.53236020018241       30.93552793987947       73.00126673327483
C           11.12140710307155       29.92252131383721       73.81804898808987
C           10.92807029800579       28.16581101850106       75.54439415416134
C           10.14931514337280       27.42138496959374       76.49176972416259
C           11.05718312873912       26.96022482606015       77.45503335898869
C           12.33536343819931       27.40474926162657       77.04793729097504
C           14.80430239007702       27.19619951715547       77.09783633762679
C           16.01163489973386       26.57954187079473       77.58152166977854
C           16.98942866642910       26.85185442704864       76.61806822245033
C           16.37557568833998       27.66477451018593       75.63762119471764
C           17.05362938923824       28.30686139001964       74.59202527524968
H           18.09782638515324       28.06999817897911       74.45995353811608
C           14.04164164138173       31.65472644102618       72.85335736675216
H           14.13741028099517       32.53039435120639       72.23018456974509
C           10.40164169207660       28.96210385054045       74.53351115129152
H            9.33428894831268       28.93874153901060       74.38000809924351
C           13.54611062609953       27.04864574653988       77.66286554715379
H           13.47614549169814       26.49768763422041       78.58710389544721
C           18.76271480009407       29.98637837931182       72.66889697581996
H           18.92259712880303       28.98114212710444       72.27834379418366
H           19.38071851131695       30.10132644556058       73.56104060173450
H           19.10385201313959       30.70089405213857       71.92369492367833
C           16.79834979788518       32.38536281614171       71.70547615109446
H           16.51359889985503       33.31890621770343       72.19118304625128
H           16.24936226822706       32.31632190733231       70.76476937849441
H           17.86069527740713       32.42857461844140       71.47802428710003
C           18.39431471599043       26.35658322101974       76.57462773667423
H           19.06506179428434       27.01317080274427       77.13343590543727
H           18.75188211791502       26.30585266775651       75.54782080600964
H           18.45285922148438       25.36013507342934       77.00907637033343
C           16.11255029481202       25.82839415204491       78.79733599051445
H           15.17084038606484       25.47819612751049       79.20410488790945
C           17.22538206730393       25.54402910434903       79.48189403743766
H           18.19709186209964       25.89476760171837       79.18701899558717
H           17.18549101699430       24.96232642058414       80.38791282761639
C           10.76650251227853       26.08009676444024       78.62176471031754
H           10.49026270992939       26.66807042160547       79.49979754840858
H           11.63520275709149       25.47834206615637       78.88147371930324
H            9.94171742755160       25.40936267554781       78.38718825494705
C            8.73253055832528       27.22488396161748       76.40065226878320
H            8.31780778401792       27.33397068751554       75.40445712662368
C            7.89167516880129       26.94066143314569       77.40013992253290
H            8.21000792267386       26.86943058142644       78.42396395599049
H            6.83927587868183       26.79843486675054       77.21809630043741
C            9.07741933197995       31.03502584234090       72.69005052930369
H            8.49894262165450       31.21148273435637       73.59822617854947
H            8.71682561787305       30.11034141572370       72.23830267394206
H            8.88434938116180       31.85102841651423       71.99793064923902
C           11.49529750063368       32.99527814697782       71.76367657607636
H           10.46361818136530       33.27928570344611       71.57094081289250
H           11.98911898488719       32.83024719897008       70.80431106943760
H           11.99375901156357       33.82912928989158       72.25799704685498
C           12.68187954168704       32.84331712205076       78.79772927074032
H           13.03417596091415       33.86083885627816       78.62927971727756
H           12.88583019840202       32.57890020452954       79.83510490767473
H           11.60904760566129       32.81454072025089       78.63563997132754
N           14.70860653523852       31.71610180503916       77.85219314090116
H           15.37241487382272       32.18896338180502       78.44384748487496
C           13.34949874414860       31.89432643513329       77.87245638341250
C           14.98966339203449       30.79317840693439       76.91023389362813
H           15.97596921423065       30.45133532046103       76.67108156489945
N           13.88973077599393       30.37610341780380       76.33157805036004
C           12.86019906134466       31.05083858609305       76.91692007010698
H           11.84756699521738       30.88261835267905       76.61292862616240
C           13.28087031208849       24.15871017754575       72.13945768790477
H           14.13154556334171       23.82291507857958       71.54669676215002
H           12.37381401745900       23.99559846940204       71.55773861329712
H           13.22739405370802       23.55938630944826       73.04277730977203
N           13.51928915038653       26.58398729778541       71.56128799865228
H           13.50320937761774       26.45160996192264       70.56303374978751
C           13.42347485711788       25.59082846732662       72.50151673256329
C           13.63609970728287       27.75898220442223       72.21274230222461
H           13.72871026164932       28.71226627196371       71.73377045716842
N           13.62017447405674       27.56986250009949       73.50979629554860
C           13.48876585433624       26.22760050234715       73.70741037984443
H           13.45062504933322       25.81685700244630       74.69530793849268

C N H 0
6-31G*
****
Fe 0
TZVP
****


