%mem=16GB
%CPU=0-71
%gpucpu=0,1,2,3=0,1,2,3
%chk=1csx_II_S.chk
# polar def2tzvp apfd int=(grid=ultrafine)

1csx_II_S 

0 1
Fe           2.86064807701275       20.95821165504720       13.04825282526304
N            4.31576008556259       19.91179562092837       12.21113537734860
N            3.46460453704573       20.37802242552690       14.84978529216498
N            1.35857439230341       21.99422333390129       13.90687948882758
N            2.17006139505208       21.50286773896651       11.23851986569638
C            4.58017651101298       19.81565318660326       10.88388018321086
C            5.51969945505831       18.74693139803047       10.62634513780116
C            5.82803937908559       18.21156005620609       11.83777082543128
C            5.07092611438946       18.95925259523283       12.81760036593800
C            4.33712283346597       19.37183541420923       15.12256202458946
C            4.43888304554512       19.15408496069215       16.54722231070775
C            3.60878239081398       20.06195074647217       17.13038213858991
C            3.00863292249934       20.81432951320028       16.05143932615773
C            1.28109705241497       22.33648170990441       15.22181153035881
C            0.21950250964643       23.29705076454904       15.44215435068843
C           -0.31111198451645       23.56348269723978       14.20793878326223
C            0.43287423772498       22.76250203404357       13.26969516319000
C            1.11646533138163       22.31315581445099       10.96476327182076
C            1.10440107496547       22.67726793533000        9.56158083823197
C            2.20995380685020       22.08682300692592        9.01076055720771
C            2.85649937419038       21.36115142500043       10.07184962080392
C            3.97671233291139       20.56810434733222        9.89367144068931
H            4.35857658599734       20.46898361583692        8.88883407181720
C            5.08939309858934       18.69888985886685       14.17591247296827
H            5.73714835475833       17.90825258997945       14.52277574413899
C            2.03754452116828       21.78152208981303       16.23647881755847
H            1.81535654055312       22.07767421887010       17.25050156379386
C            0.22190688937626       22.80165985661768       11.90124541786990
H           -0.57216709916756       23.43553293352101       11.53913413811055
C            6.01249052970219       18.37093569227797        9.27097073093097
H            6.48550717077602       19.22473661663227        8.78449102107719
H            5.18654882144041       18.03982158817449        8.64123000095575
H            6.74009446172910       17.56543299665997        9.33283754673595
C            6.74257532761719       17.08185133810301       12.16556112891042
H            6.19651732319116       16.26780369387346       12.64274436173102
H            7.52250258026587       17.41318110762484       12.85144900496535
H            7.21639199476787       16.69480504873566       11.26684579136795
C            2.67093247274746       22.12651493990747        7.59498159661333
H            2.60980695546009       21.13485893130175        7.14436881776049
H            3.70742436443205       22.45888415326318        7.53670850692104
H            2.05367685927180       22.80292275165292        7.00897205665427
C            0.11367346154093       23.47665238347635        8.86887488756431
H            0.50948433276911       24.15677924056461        8.12165559328525
C           -1.20071847158661       23.40677127411046        9.04530868804522
H           -1.64945297789340       22.71234571365622        9.73543702341281
H           -1.87927631311196       24.02728216766868        8.48368227081625
C           -1.37527697621484       24.54146019567141       13.85143590857682
H           -2.33805393355490       24.04432309136353       13.71990178099494
H           -1.13267574655343       25.05474634988919       12.92210132860981
H           -1.47805583510999       25.28233567388071       14.64169434454097
C           -0.12420043808399       23.86237024456153       16.72817229036095
H            0.70204629216344       23.98632736610222       17.41898153298566
C           -1.34492490385524       24.22020566541322       17.11333981321882
H           -2.20978713853285       24.07385594952217       16.48997835849822
H           -1.52535551220185       24.65108992930416       18.08439141160738
C            3.31211817759190       20.27994329792083       18.57446100168843
H            3.89321705400974       19.60215774895466       19.19512817682073
H            2.25388648149828       20.11097521682810       18.77603401141053
H            3.55136357823664       21.30252209798670       18.86751810891157
C            5.28800662524742       18.10581968108252       17.18038112780437
H            5.15364707322364       18.09859781565600       18.25932231765243
H            6.34231970239900       18.28541618595481       16.96819401642236
H            5.02967684885928       17.11950417420358       16.79426189795366
C            4.99811989029020       26.09676722543431       12.75314978972082
H            5.24161235137183       26.60145541694003       13.68808991867932
H            4.09096172821109       26.53421847111489       12.34808000790500
H            5.81332824074209       26.26980525739866       12.05060322997434
N            5.76789170791725       23.82732520905213       13.48457868316610
H            6.69504050665322       24.11570490629872       13.75085235314219
C            4.79161937211605       24.64329554465563       12.97563213970210
C            5.25842764491504       22.57701917276266       13.56068441489842
H            5.79706643748263       21.72689623043840       13.92458854501828
N            4.02009793665867       22.55247967308275       13.13186636092752
C            3.71567747240342       23.82933200023566       12.76385700329468
H            2.74998197276094       24.07772012796238       12.37475778606168
C            1.01515961187526       17.83539651525197       15.44935794238471
H            1.03557502236563       16.84438473839704       15.00203027058246
H            0.38920102712298       17.80712819534837       16.33925279823329
H            2.02558944526668       18.10129229221277       15.74527142384061
C            0.46669874838897       18.84998269290919       14.46457208936835
H            0.45026100914931       19.84845573876192       14.89695083957798
H           -0.53517380777005       18.57036616479936       14.14090912567303
S            1.51322575530287       18.91085691037928       12.95190790386027
C            0.20022745609579       19.20707032980746       11.72867768502220
H            0.68649898861630       19.30811222075765       10.76440245597078
H           -0.32648220595372       20.12434242891009       11.97081277906374
H           -0.47480032013837       18.35510867220436       11.71881505288025

--Link1--
%mem=16GB
%CPU=0-71
%gpucpu=0,1,2,3=0,1,2,3
%oldchk=1csx_II_S.chk
%chk=1csx_II_Sn.chk
# apfd/def2TZVP int=(grid=ultrafine) geom=check guess=read pop=nbo scf=qc

1csx_II_S_nbo

0 1


