%mem=16GB
%CPU=0-71
%gpucpu=0,1,2,3=0,1,2,3
%chk=1c75_12_opt.chk
# opt apfd/gen scf=maxcycle=999

1c75_12_opt

1 2
Fe          11.12574589000413       24.01270505501084        1.95456967817766
N           11.58906603416840       25.94490290650658        2.14755243528983
N           12.39986610630110       23.86093062076888        0.42118162982017
N           10.66708600025066       22.06774416000851        1.76625586965908
N            9.89464060819504       24.14486849940227        3.53580526964574
C           11.16913797085368       26.79206719613440        3.12684173509107
C           11.68601317162939       28.12280162280679        2.90073828362097
C           12.41281129814067       28.06181827354526        1.74976930155753
C           12.35136717228539       26.68900393124396        1.30231784165303
C           13.08407089338756       24.87491960611322       -0.17585369247981
C           13.91115100840879       24.36590694508299       -1.24606857493223
C           13.72526486562822       23.01585741662257       -1.26624673757348
C           12.76741356738630       22.72100996556494       -0.22475281192616
C           11.25945447824230       21.16972171617715        0.93468942784584
C           10.65344967560577       19.86469571557325        1.08487055098412
C            9.68396684355305       20.00045095354955        2.04713912309062
C            9.72671060348974       21.37518568659682        2.47163948583581
C            9.08276371864284       23.16896746489470        4.02373511173874
C            8.35700445501774       23.64661585997106        5.18257886179572
C            8.78810033277183       24.93084915643257        5.39814028161900
C            9.73492641019358       25.22173614439893        4.35265503213950
C           10.33229891319923       26.45734931334895        4.17183144814778
H           10.08691623302544       27.23455914849427        4.87797733099113
C           13.03965351445069       26.20262001363167        0.20634681898592
H           13.62264044247513       26.90513341333905       -0.36774778991709
C           12.25162749000645       21.46233589445301        0.01586183268415
H           12.62105954059442       20.65189886190096       -0.59195468715092
C            8.96489453422006       21.89296137408993        3.50602092759908
H            8.25506774469459       21.23068711192633        3.97576529489164
C           11.42061186088826       29.28689329794081        3.78678504835941
H           11.74143328508770       29.07439788267418        4.80598412415557
H           10.35539389250890       29.51534773260138        3.80765637909908
H           11.95188984574932       30.16710709185931        3.43686767749824
C           13.15171717702427       29.14092412410232        1.04231432962106
H           12.79246050725467       29.23982444320968        0.01881023025407
H           14.21814847394561       28.91878518143758        1.00678774318381
H           13.01783452717753       30.09386185328663        1.54562527017717
C            8.42388314186071       25.85628792651240        6.50153765597707
H            7.67158102311681       26.57459072287295        6.17352622284323
H            9.29512259934027       26.41241072817387        6.84217950885460
H            8.01759267435749       25.29454319826098        7.33936376400133
C            7.40496510694045       22.86317273086249        5.94134628547612
H            7.61144516705622       21.80202835645405        6.00387268801524
C            6.32306011539253       23.35052638305000        6.53867161597511
H            6.04555065474485       24.38746806520483        6.46703058007880
H            5.65848037332075       22.71527893754645        7.09805715149534
C            8.80325360415153       18.95113924245594        2.62204530496894
H            7.80548873703768       18.99881216298632        2.18399915229897
H            8.70302173408137       19.07363060222653        3.69879207848532
H            9.21883699602840       17.96662714641943        2.42120479108000
C           11.05133393500999       18.68325663199729        0.34854376937881
H           12.10755538981389       18.60665891574983        0.12229215890281
C           10.22588174338063       17.72547920947714       -0.05881831402751
H            9.16261965885304       17.77822927314929        0.09763734472030
H           10.58782969391294       16.86485163459102       -0.59406888810654
C           14.33136843283315       21.99419125033074       -2.16035256477937
H           15.05697831119810       22.44830339414047       -2.82877929933120
H           13.56388283074604       21.51104933599793       -2.76478813698538
H           14.83588520131101       21.22522752673193       -1.57655934169188
C           14.77357550324615       25.21268009766163       -2.11269917250114
H           15.26604006604405       24.61137481146686       -2.87120781101340
H           15.53963204998091       25.71374361022668       -1.52135405395593
H           14.17937542477651       25.97654517186928       -2.61294784593222
C           14.29387302000676       21.78480530283117        5.99425854257721
H           14.61919590320854       22.43685940924093        6.80397570872789
H           15.13963991924520       21.16569435740645        5.69754540521950
H           13.50308411212631       21.13973437672369        6.36352446536978
N           14.58301169508911       23.48297933317966        4.17839648307711
H           15.54605743816986       23.69127513206076        4.39134881238703
C           13.79897331225687       22.58129305672348        4.84671854226651
C           13.84316301008519       24.03349551945675        3.19885832475634
H           14.20130254397081       24.77554964693807        2.51472762535331
N           12.62823971992946       23.53434996434038        3.20265829792294
C           12.58462768047312       22.62920482263830        4.22210930279250
H           11.69420934396731       22.07682599567168        4.43926397685278
C           10.06910471219493       24.18893444387261       -2.19124959399661
H           10.02572236144432       23.51272771437541       -3.04190276293200
H           11.11175913113210       24.37537205438521       -1.95109431885316
H            9.60492128894881       25.13093113303563       -2.47178476628773
C            9.34406790051136       23.57183302005677       -1.01129473100445
H            9.79903283205586       22.62837641391991       -0.71392340588202
H            8.29250289868141       23.41510133176221       -1.24758425571359
S            9.38556589150866       24.71034679892946        0.43466094304864
C            7.78547086582619       24.27314393199055        1.17724209620959
H            7.75717722507739       23.21305482454057        1.40911834102069
H            6.99635612174537       24.54026173857448        0.47961305224686
H            7.68204181736606       24.85529697620425        2.08679918938098

C N H S 0
6-31G*
****
Fe 0
TZVP
****


