%mem=16GB
%CPU=0-71
%gpucpu=0,1,2,3=0,1,2,3
%chk=1a2f_01_opt.chk
# opt polar def2tzvp apfd int=(grid=ultrafine)

1a2f_01_opt

0 1
Fe          -5.58334025451167       57.02507385995161      111.68211648330531
N           -6.35637549988344       56.09015783453982      113.28905804402244
N           -6.50366628878226       58.72782470450176      112.24834933302108
N           -4.77411967692625       57.97527514678129      110.12785494703158
N           -4.63560679008568       55.35018325389267      111.17017439127579
C           -6.20310281139934       54.78102511283278      113.62291862481366
C           -6.94962298034814       54.46768834324599      114.81985331068017
C           -7.56327039874640       55.62045409568080      115.20209644775692
C           -7.18589124335947       56.62189250077662      114.23061624558201
C           -7.31256478098329       58.90599503055927      113.33179087488776
C           -7.82940189664120       60.24818949371230      113.36998679686350
C           -7.32581633529528       60.88669008750907      112.26607796158756
C           -6.49321481812147       59.91496166540883      111.58649275868585
C           -4.98418946650008       59.26840289467897      109.76005816400510
C           -4.24576930468453       59.58859253119247      108.56373643735253
C           -3.57774561422559       58.44773247366245      108.20872920211701
C           -3.92373841762082       57.45544516059000      109.20926971008778
C           -3.80880052069739       55.17714648379624      110.10741566997186
C           -3.32176661540635       53.81487709744235      110.05194082157475
C           -3.87988355591933       53.16858282472167      111.10883095756165
C           -4.69818516142777       54.14587780435122      111.79539011587300
C           -5.43023512286721       53.86595476000786      112.93282228183342
H           -5.39366756707560       52.85741719750369      113.31509479716499
C           -7.62663314903747       57.93080078334709      114.26501593002490
H           -8.28934825701945       58.20846399713819      115.07041494930867
C           -5.79653622219221       60.17143066601685      110.42173819243278
H           -5.89497147965337       61.15604879518023      109.99121025051942
C           -3.47091162092849       56.14938757938813      109.18609919714766
H           -2.80690934267916       55.86393840658589      108.38440208868934
C           -8.45502005567266       55.87423311730308      116.36933612068356
H           -8.58760905103190       54.96985337831955      116.95788068496032
H           -9.43672592637202       56.21387186208906      116.03754752268432
H           -8.03275535385892       56.64431200895615      117.01562587379769
C           -6.98896045431284       53.12137158909557      115.45738214141706
H           -5.98767987279496       52.80905925799038      115.75502964938468
H           -7.38051878460696       52.37951204017975      114.76114177578465
H           -7.62176374498155       53.12930008441513      116.34152541644428
C           -8.68165719650214       60.80914497501308      114.45488662608302
H           -8.38332819161904       60.41299094933175      115.42452440580522
H           -9.73214118829788       60.55822839961392      114.29698770118047
H           -8.58869348258955       61.89305673681922      114.47846211454910
C           -7.51736035867355       62.25356856734350      111.83544708397059
H           -6.67252644428596       62.70785682196882      111.33092100142535
C           -8.62573123476011       62.96806388701034      112.00185860627792
H           -8.69242724517204       63.98963566945248      111.66614320794915
H           -9.51205208118894       62.55630137712337      112.45210071025319
C           -4.18939834950618       60.93181855089745      107.92399963856928
H           -4.15956910740464       61.71683827749590      108.67818643525318
H           -5.06508124422026       61.10112544576224      107.29504814654666
H           -3.29928116591594       61.01219816852736      107.30346250136499
C           -2.67654128130080       58.22146818152567      107.10046486843954
H           -1.86009022881902       57.53548946703114      107.29424992508552
C           -2.78160556189758       58.77398716315715      105.89621174834139
H           -3.59749802422722       59.42478958204077      105.63387221828845
H           -2.06354129575889       58.57195648653560      105.11870050913681
C           -2.38861457102304       53.29757864662442      109.01166258750422
H           -1.44904955332057       53.84994136278979      109.03341676882168
H           -2.82219087911636       53.40715302445317      108.01724503938800
H           -2.17052923768387       52.24518760318877      109.17603723149256
C           -3.72529969000477       51.75005594466872      111.53881704584251
H           -3.06707217038366       51.21051274925522      110.86234316410037
H           -4.69187684590526       51.24574886077924      111.55227486323997
H           -3.30262805883843       51.69784839259670      112.54243018152114
O           -3.86016455908176       57.66299464958264      113.05599632977342
H           -4.07211468090548       57.13228122446661      113.83168846686047
H           -4.13087870895895       58.56717999197041      113.24919509383471
C           -9.00141423608851       55.30444840348662      107.62909031437772
H           -9.64695473506127       56.04917715153723      107.16366899725331
H           -9.58813451478257       54.40113768156442      107.79564959849561
H           -8.19021394380391       55.07212562842052      106.94638609546175
N           -9.23684109247003       56.18303458678728      109.96239536963012
H          -10.24283234711104       56.14928344579531      109.98250871143483
C           -8.44403580405202       55.81499910932434      108.90705213577704
C           -8.42429141070460       56.59957162514990      110.95937961610980
H           -8.77113321244803       56.94715939305887      111.91040720086858
N           -7.16641013872379       56.51748743399006      110.59993770289761
C           -7.16230938204811       56.03057465823554      109.32564323073855
H           -6.24416810871673       55.86997580229043      108.79922263570673

--Link1--
%mem=16GB
%CPU=0-71
%gpucpu=0,1,2,3=0,1,2,3
%oldchk=1a2f_01_opt.chk
%chk=1a2f_01_nbo.chk
# apfd/def2TZVP int=(grid=ultrafine) geom=check guess=read pop=nbo scf=qc

1a2f_01_nbo

0 1
