%mem=16GB
%CPU=0-71
%gpucpu=0,1,2,3=0,1,2,3
%chk=1ltw_01_opt.chk
# opt polar def2tzvp apfd int=(grid=ultrafine)

1ltw_01_opt

0 1
Fe          35.41944160337144        4.32226508377059       10.42382606605512
N           37.25618506387747        3.86367776573092        9.71112002107180
N           35.06272097934022        5.46373910106705        8.79195507092998
N           33.50969433138732        4.60851899056114       11.01682068376954
N           35.71303600158642        3.01036670959016       11.93159901779881
C           38.18728304835206        3.06708991385517       10.29703115405129
C           39.40316926739867        3.05542048598122        9.51356544807056
C           39.18106620487459        3.87227509440692        8.44789937247212
C           37.83027239103002        4.37082382524387        8.59008822797545
C           35.94428012819910        5.73917079763277        7.79619216494662
C           35.35978445519411        6.64900327617318        6.84256696396493
C           34.09627717445334        6.92430046260285        7.29508942932852
C           33.93237461026439        6.16338452672407        8.51881034376797
C           32.59374880666994        5.43942521180353       10.45270986933869
C           31.38128211186102        5.45659325190978       11.23333973340107
C           31.59634259422470        4.62100953352626       12.29741647252958
C           32.94096245558276        4.10065732422809       12.13610908685608
C           34.83431425643391        2.74292704914149       12.93006331235684
C           35.43335082662640        1.85199256190522       13.90105952197685
C           36.69541829558280        1.59738442759983       13.46133630515055
C           36.85534195980359        2.34067983025212       12.22970308576222
C           38.01225642135420        2.35264212606836       11.47035676578731
H           38.84835890843041        1.77028885316110       11.82746263786041
C           37.23006868081946        5.23508368056437        7.69506442294669
H           37.82231409185682        5.55875881108569        6.85272423362355
C           32.78432343847738        6.17009701242609        9.29110512187785
H           31.97383108980889        6.80638082320120        8.96893320361103
C           33.54661827205952        3.23494685936021       13.02889098060535
H           32.97584329738097        2.94173168692233       13.89668562042769
C           40.09502817838653        4.23039616010734        7.32715584783530
H           41.05005172283316        3.72144673010616        7.42904051050086
H           40.27846204516465        5.30448531001558        7.31523492505951
H           39.65657445642677        3.95072886430831        6.36906546572538
C           40.62625060770205        2.28481571205973        9.87440263987106
H           40.40406953451104        1.21989057538832        9.94665219688060
H           41.01229095109332        2.61579284549636       10.83820716560852
H           41.40458936896167        2.42287121288601        9.12843570888844
C           36.01562077778304        7.11526354889156        5.59040101796280
H           36.59119585952395        6.31151546325907        5.13402839970899
H           36.69533445788397        7.94324270603586        5.79577082642214
H           35.26505423329542        7.45474149259628        4.87964857890321
C           33.07796750071875        7.76888415935310        6.70760306609484
H           32.05580100551791        7.43566731967942        6.84472990006767
C           33.30570868419165        8.89541033542633        6.04123374586994
H           34.29597529451468        9.29760840337439        5.91952558616112
H           32.49978072190991        9.47275130125428        5.61986558363041
C           30.14572190127353        6.20622102049141       10.87885589639538
H           29.97669706522787        6.18846818953510        9.80320542675251
H           30.22571491883837        7.24836494788328       11.19047657138496
H           29.28489503091420        5.76354592760868       11.37574782162844
C           30.69927722042393        4.26445073399408       13.37567227069244
H           30.79193454658677        3.24983017997631       13.74524785897108
C           29.80484324737069        5.07509576751299       13.93059971575334
H           29.70688554021857        6.10540520763054       13.63747755094907
H           29.15937021930870        4.74063307376475       14.72560813872979
C           34.74286991738345        1.35949803281066       15.12525934751286
H           33.83328346148027        0.81862626282584       14.86319407719219
H           34.46725344804350        2.19730441068733       15.76496579439654
H           35.38786181732751        0.69291180931082       15.69212964169630
C           37.75902309157545        0.75475499949573       14.07620122794946
H           38.09329687164371       -0.01453947211420       13.37970738947468
H           37.39406408808566        0.26764190849034       14.97666116098749
H           38.62005027191757        1.36732675512222       14.34266630552504
C           32.35604936624909        0.66950207689797        6.98291546801831
H           31.86386694194792       -0.17887700749827        7.45834184667491
H           32.80602439586961        0.32438122197472        6.05211956321584
H           31.60726799110251        1.42014366722960        6.75012285694860
N           34.45888984365966        0.53370418045806        8.33683877431659
H           34.65487054345976       -0.42979226329298        8.11840267023504
C           33.38387198306602        1.25295727157710        7.88058719890367
C           35.19198509902895        1.35053391059879        9.12392327177006
H           36.09471319736855        1.05671365780655        9.61960527333282
N           34.65140736185469        2.53800470261946        9.19484286221321
C           33.52657633335149        2.49654963578140        8.42816575831992
H           32.90030829952428        3.35821431932446        8.32270662560564
O           36.02931331495767        5.64002972616989       11.25631975431133
O           35.66409650422322        5.81624792860095       12.47090637659703

--Link1--
%mem=16GB
%CPU=0-71
%gpucpu=0,1,2,3=0,1,2,3
%oldchk=1ltw_01_opt.chk
%chk=1ltw_01_nbo.chk
# apfd/def2TZVP int=(grid=ultrafine) geom=check guess=read pop=nbo scf=qc

1ltw_01_nbo

0 1
