%mem=16GB
%CPU=0-71
%gpucpu=0,1,2,3=0,1,2,3
%chk=1crj_II_S.chk
# polar def2tzvp apfd int=(grid=ultrafine)

1crj_II_S 

0 1
Fe           2.88988740766448       20.94960790651357       13.10102818075550
N            4.35671406173829       19.92069495803874       12.24989163580560
N            3.52985930919070       20.33960243159790       14.90017775054604
N            1.47057130385457       22.03641887238189       14.01364335303795
N            2.22555016898411       21.55140825691823       11.31683757596082
C            4.61070335164849       19.84785093119932       10.91763034410342
C            5.60785430051585       18.83541994539156       10.64375037037790
C            5.95123263065436       18.30406766180342       11.84654558981743
C            5.18448600740210       19.02246827817358       12.84203061572586
C            4.45241679308460       19.37393084066970       15.15337686174266
C            4.66378534838211       19.22828958526577       16.57569899843338
C            3.77026966810255       20.05833069474176       17.17908317760839
C            3.07537788834645       20.74739190884618       16.11478938860537
C            1.36527932153875       22.31699667673645       15.33785376814162
C            0.26746758824890       23.22760322227125       15.58827287118051
C           -0.26625604822384       23.51994879333932       14.36109822296581
C            0.52332477713311       22.79776266679539       13.39658463127668
C            1.20458030566874       22.41203352958234       11.07727729410582
C            1.14000303012284       22.74843829635724        9.66848124564272
C            2.21837712598466       22.13285486405041        9.08728551272962
C            2.89889187055529       21.42609667210771       10.14099214147650
C            3.99272765067224       20.60205642519510        9.93866994924404
H            4.36074039809713       20.50132275987169        8.92887748164948
C            5.20976167309494       18.72796269472319       14.19182998954708
H            5.90469731517087       17.97337468513629       14.52734452072851
C            2.11803258200000       21.72048551508239       16.33206595072478
H            1.89861308197208       21.98324658449343       17.35540625273538
C            0.30887623892360       22.86693157394922       12.02967607759927
H           -0.51844872641672       23.47043591871621       11.68820980910330
C            6.09220864187499       18.47993652054540        9.28003940631005
H            6.53473097344426       19.34853972258488        8.79141583053549
H            5.26664212000778       18.12842536576926        8.66104163493277
H            6.84283824908804       17.69486594124650        9.32798397378276
C            6.92114230405803       17.21630176745564       12.15801784386928
H            6.41448437520771       16.38208496466009       12.64360195596049
H            7.70073156339736       17.57570859138688       12.83037661749460
H            7.39421003224926       16.84801681104429       11.25104360366665
C            2.68949573642972       22.22732544032396        7.67812407309363
H            2.37131795743190       21.35649025761106        7.10218274498391
H            3.77655232489475       22.27833876550342        7.63927199776317
H            2.28044431370126       23.11826504993802        7.20554917879963
C            0.14076113823642       23.60281736977380        9.06845693578728
H           -0.25322005669131       24.38465359573321        9.70776570940900
C           -0.32423084603277       23.49415174495271        7.82777635081245
H           -0.00744050978549       22.70922014366435        7.16369096931664
H           -1.06357844666910       24.17623746054669        7.44187637640628
C           -1.37167651841124       24.46303880198775       14.03553209060258
H           -2.30405471587709       23.92465874587524       13.85596805186651
H           -1.13839872738343       25.03851574318879       13.14070257030266
H           -1.52765293605834       25.15411344339222       14.86142785482763
C           -0.11478593725809       23.71393328288202       16.89523541148748
H            0.69809429527849       23.84744752013987       17.59996915415697
C           -1.35603812735577       23.98928001737968       17.28247367844154
H           -2.20512430841612       23.82913331287031       16.64101835200570
H           -1.56866472348214       24.36212166228660       18.27074773993447
C            3.53140497249485       20.29372335200001       18.63099408352017
H            4.15328760223154       19.63878187543714       19.23644850531016
H            2.48758293054029       20.10324978821479       18.88082819962828
H            3.75932203452863       21.32635564254641       18.89766390900191
C            5.63905144841967       18.28183577844644       17.18773430664386
H            5.60173799184853       18.33595225424216       18.27301244539645
H            6.65441004651469       18.51745982811777       16.86772988750058
H            5.42016431731409       17.25694932330366       16.88676502012992
C            5.15626236834644       26.04388347451441       12.88924846752884
H            5.98916149104757       26.20564500907870       12.20502771519518
H            5.39279538564412       26.53083480550166       13.83533243545330
H            4.26802777220117       26.50775932418051       12.47194030283022
N            5.86401090012475       23.74701123417777       13.59478316316677
H            6.79467945132944       24.00936388835002       13.87531088112237
C            4.91200824903258       24.59308479999928       13.08910197359073
C            5.32518919299795       22.50842170750847       13.64760419116969
H            5.84094420261889       21.64068060288832       14.00296641892943
N            4.09129247785344       22.51914619296588       13.20666534333063
C            3.81943888885121       23.80794544839525       12.85577840790398
H            2.86365956509740       24.08435059687203       12.46144857739639
C            1.14089918450607       17.81746804451324       15.45658346550183
H            0.55790043846634       17.75442277473673       16.37339044325767
H            2.16123978881554       18.08623148559886       15.71273418264458
H            1.15127433125951       16.84098712889830       14.97806239526133
C            0.53739730477254       18.85447361760222       14.52902562932125
H            0.52527507708207       19.83865911493582       14.99340687957057
H           -0.47335553177040       18.56996028403195       14.23857696039852
S            1.52097677627442       18.97451696096834       12.97777468837371
C            0.15802804075896       19.33988792858601       11.82966860090454
H           -0.34578181599926       20.25141167782761       12.13477799562564
H           -0.52798713429452       18.49698486475264       11.81329111635129
H            0.60153765509366       19.47790599816077       10.84962373999228


--Link1--
%mem=16GB
%CPU=0-71
%gpucpu=0,1,2,3=0,1,2,3
%oldchk=1crj_II_S.chk
%chk=1crj_II_Sn.chk
# apfd/def2TZVP int=(grid=ultrafine) geom=check guess=read pop=nbo scf=qc

1crj_II_S_nbo

0 1


