%mem=16GB
%CPU=0-71
%gpucpu=0,1,2,3=0,1,2,3
%chk=1crh_II_S.chk
# polar def2tzvp apfd int=(grid=ultrafine)

1crh_II_S 

0 1
Fe           2.88919724869770       20.94531538040758       13.03414965922637
N            4.32912365917362       19.85059744540989       12.16182915172435
N            3.46727497537755       20.23620021344112       14.78769638891455
N            1.44731113947930       21.99093276189330       13.86997029281453
N            2.23537132157573       21.46496095442783       11.20416619239444
C            4.63672424294213       19.81632770615656       10.83959404116398
C            5.63525877106418       18.80400266303006       10.57334784696024
C            5.92317190902419       18.22831369850609       11.77058620907016
C            5.08825506516737       18.88903145667978       12.74993647646625
C            4.31584779434138       19.21007200912126       15.04997610948280
C            4.42174478698759       18.98270117174670       16.47239965396649
C            3.59174022304436       19.88471830293329       17.06478186487387
C            2.98536390848770       20.64300343141175       15.99302679326816
C            1.33201374955736       22.26614483652166       15.19442042648441
C            0.20115213435881       23.14123230088216       15.43351360362302
C           -0.36835835295803       23.36944886531041       14.20758953862895
C            0.45093671319094       22.67487383650966       13.24662456931144
C            1.16736166746314       22.26467878835008       10.93963856669921
C            1.20762637920827       22.73565562256707        9.57055657110270
C            2.34901690873829       22.20857429791373        9.02656421317495
C            2.96683517037994       21.42191053589237       10.05826600856532
C            4.07894681452908       20.62099556629216        9.86584644724786
H            4.50158410201435       20.57948698419947        8.87341324652111
C            5.06919755884057       18.55598348271167       14.09186586260682
H            5.71412913778064       17.75514712928537       14.41968337713268
C            2.07961307163412       21.66977981178703       16.19420939166622
H            1.85097925357587       21.93594632871416       17.21495084373248
C            0.24498605099104       22.70651619218982       11.87809534170376
H           -0.57887060621434       23.30041874503199       11.51451438442187
C            6.19147747338969       18.50791130969830        9.22281756067125
H            6.67202489536385       19.39197993672258        8.80239579469182
H            5.39743548619093       18.19989184694415        8.54249450385960
H            6.92766057390617       17.70941538005713        9.27354602936300
C            6.87229301483554       17.12274604765297       12.08375114552850
H            6.33837592339875       16.26566567668510       12.49460994583167
H            7.60933331548820       17.44597710906856       12.81938188134210
H            7.39997471539436       16.80062306696579       11.18936724286629
C            2.87662814044228       22.37255491237408        7.64343074880217
H            2.82473827907395       21.42810476142174        7.09990030371723
H            3.91871043948970       22.69171526084134        7.66450081280100
H            2.29452804119310       23.10980368953287        7.09590055750089
C            0.23345675201841       23.57023230603956        8.89599071074524
H            0.64963842914280       24.31864156431289        8.22944977403369
C           -1.08618796713746       23.46175231404823        8.99710915718525
H           -1.55404986980683       22.70208491681118        9.60043752841563
H           -1.74930785032628       24.11654224577023        8.45637353366287
C           -1.53073464141062       24.23857317287191       13.87543516398283
H           -2.44085672740915       23.64643879466447       13.76324534262798
H           -1.36045974423552       24.77172855032961       12.94124662597332
H           -1.69116574064473       24.96677610326984       14.66804695746293
C           -0.18781473738701       23.63704730222990       16.73462229045597
H            0.62759379594746       23.80841619007181       17.42828936756839
C           -1.43286277617730       23.88116256319899       17.13094491356647
H           -2.28411706846018       23.68383050966708       16.50315271416323
H           -1.64529501642915       24.26519040061829       18.11501277222882
C            3.30205602490960       20.09184740348742       18.51181696006536
H            3.86875871451242       19.39418440537754       19.12368071647939
H            2.24099620261774       19.94358824530924       18.71422113291982
H            3.56476448531021       21.10571625566431       18.81514009076618
C            5.28002475346620       17.93421028548966       17.09275201359543
H            5.15297986576446       17.91835902671841       18.17257629359157
H            6.33224009321311       18.11988549326869       16.87383973142557
H            5.02312204681026       16.94965520523473       16.70137391821571
C            5.19700029805470       25.98913405599605       12.72073067487627
H            6.02744730059631       26.12240641316387       12.02748241083525
H            5.44547057822244       26.49817445082876       13.65198085332524
H            4.31161713910422       26.45238308370971       12.29674177775666
N            5.88215201820317       23.70397157252000       13.48306368476906
H            6.81811728583647       23.96241833368881       13.74896961909328
C            4.93669973864850       24.54720974377580       12.96076886324817
C            5.32895439435774       22.47299779735198       13.57276908946338
H            5.83542958248561       21.60744404031345       13.94645677962331
N            4.09218127980888       22.48699635409801       13.13900994606323
C            3.83302703932593       23.76966045954348       12.75558477543373
H            2.87714747958635       24.04515658775542       12.35964025435436
C            0.81156619743660       17.88796462524713       15.38620858114712
H            0.13276456866628       17.88219184574321       16.23691206377239
H            1.80592434667348       18.14485770382279       15.73886954415375
H            0.84517070764482       16.88988556307615       14.95582748602813
C            0.33904529095640       18.89348768443242       14.35380315820435
H            0.31107017022491       19.89887416370452       14.76964333182867
H           -0.64582281610493       18.62345000421830       13.97488051894404
S            1.47749218475848       18.90922703197543       12.90714499758890
C            0.24556940303155       19.16601319772703       11.59417936819628
H           -0.30942214271657       20.07909769246372       11.78372226576064
H           -0.41534476590155       18.30397598630672       11.55375152906085
H            0.79524860025288       19.25879883685177       10.66379111758186


--Link1--
%mem=16GB
%CPU=0-71
%gpucpu=0,1,2,3=0,1,2,3
%oldchk=1crh_II_S.chk
%chk=1crh_II_Sn.chk
# apfd/def2TZVP int=(grid=ultrafine) geom=check guess=read pop=nbo scf=qc

1crh_II_S_nbo

0 1


