%mem=16GB
%CPU=0-71
%gpucpu=0,1,2,3=0,1,2,3
%chk=1cif_II_S.chk
# polar def2tzvp apfd int=(grid=ultrafine)

1cif_II_S 

0 1
Fe           2.79189170487781       20.96242857783687       13.13188362744116
N            4.30109072464357       19.95800980970485       12.31961854284047
N            3.36590913030015       20.38784045013845       14.93183129371728
N            1.35567533130108       22.08089807041500       13.95802622232334
N            2.18478889578853       21.55152463665028       11.31794601045171
C            4.57086278478046       19.85800856206338       10.99455141902495
C            5.49122723724022       18.77145560651629       10.74093940999565
C            5.73192329004053       18.18724994336742       11.94529554823876
C            4.99046781119456       18.95273501918952       12.92249111895138
C            4.26526353806712       19.41073175315649       15.21708532938276
C            4.50028075638626       19.33876604904698       16.64100046186211
C            3.69785236210922       20.28102608221951       17.20935180911925
C            2.99650967799270       20.92507200535778       16.12265660239425
C            1.25494315266558       22.42154892791365       15.26964451583050
C            0.16479851543982       23.35304686978050       15.47483252847420
C           -0.38823546634452       23.56535607151057       14.23889162298227
C            0.38837673277741       22.78422439337027       13.31101515949664
C            1.10304718122685       22.31563432996073       11.02238659114294
C            1.11547602155490       22.70326554663509        9.62466131213620
C            2.24352487430037       22.13928522281325        9.08887804649997
C            2.89000572650792       21.42891941682705       10.16157239605807
C            4.03184614258823       20.66301806629452       10.00605464641678
H            4.43814896193894       20.56854819777321        9.01027002998268
C            4.95433750241754       18.66494085045573       14.27375276295536
H            5.57498303720942       17.85755236611937       14.63208746255766
C            2.03749137586070       21.90761858927192       16.28777073290576
H            1.84349376669519       22.25012260277474       17.29260725872052
C            0.17428512733173       22.77349602976924       11.94177832468245
H           -0.67548812523473       23.32226392043101       11.56522493547493
C            5.99895895401842       18.39792232005138        9.39056976509242
H            6.51271512814707       19.24074585782266        8.92735988459295
H            5.17466505221452       18.10610324892835        8.73946170187434
H            6.69563605493515       17.56570910989172        9.45522613225923
C            6.57945863923794       17.00581324294071       12.27155305522580
H            5.97820030746985       16.22190257324219       12.73208843629141
H            7.36938783538240       17.28058967273930       12.97131276912245
H            7.04183662891929       16.60098000284514       11.37470679502579
C            2.78949494162848       22.28785813531869        7.71179835743276
H            2.52860625068513       21.42599848557826        7.09496486833959
H            3.87505351654543       22.36977739749856        7.73519991097162
H            2.38117722149288       23.18059328546899        7.24209991086228
C            0.11566356519572       23.53111319148991        8.98793740424518
H           -0.34714978171504       24.27895436653072        9.62161062439333
C           -0.27034858425840       23.43916229473608        7.71930310344519
H            0.11724545873723       22.68711124676477        7.05475809983221
H           -1.01349864206621       24.10199717437951        7.30787568605379
C           -1.49713020282773       24.48736793325759       13.86778816272675
H           -2.43578044185134       23.94243022859072       13.75191514026028
H           -1.28255805455357       24.99087788067222       12.92626331179518
H           -1.63090756681027       25.24065758171188       14.64154025212009
C           -0.20019314226585       23.92353912230984       16.75231940122254
H            0.62104390593511       24.09366824150762       17.43925895906710
C           -1.43461607731938       24.23456886160338       17.13445425550567
H           -2.29231284270057       24.04244709067227       16.51368819781033
H           -1.63272218251146       24.67055288655083       18.09965558777147
C            3.53480671242911       20.64108046889323       18.64618351818374
H            2.50759111420175       20.46755976053185       18.96861224161454
H            3.76525376114269       21.69450563146697       18.80753861721394
H            4.19496671841717       20.04569413061689       19.27235367137536
C            5.43508202390344       18.37639753216673       17.29029991452181
H            5.42365962849636       18.49453912378710       18.37107939523537
H            6.45495644390091       18.53449819633805       16.93818221378679
H            5.15280478326065       17.35013883650059       17.05403938249360
C            5.02983321277146       26.06378691583578       12.92635801769744
H            5.23632347483348       26.56365931035775       13.87272622932888
H            4.15091136768708       26.51666329849060       12.47842820190919
H            5.88081347292575       26.22272001680402       12.26410247888183
N            5.73140513426567       23.78105737265554       13.68145014522858
H            6.65238627496363       24.05299660826182       13.98393568019680
C            4.78902655299289       24.61396089458121       13.13717732937339
C            5.19917058387913       22.53972300912330       13.73494336337025
H            5.70987397665340       21.67975469195336       14.11551419991071
N            3.97865074628361       22.53682892069784       13.25904273035691
C            3.70874856489164       23.81846688815922       12.88280933293849
H            2.76312307310222       24.08224287092490       12.45660623530291
C            0.92709437156289       17.97545353678288       15.53236729414390
H            0.97723620656982       16.97410623074513       15.11112185521032
H            0.28297997200643       17.95685844589934       16.40939401667311
H            1.92538742193262       18.26957994113103       15.84187999054986
C            0.38116179220790       18.95310829993421       14.50964451816106
H            0.34149774965859       19.96280990727576       14.91404871218067
H           -0.60982721802206       18.64837927874844       14.17526649654052
S            1.45770004862705       18.98825151400739       13.01703812506882
C            0.16527837988672       19.24693015573535       11.76272733452366
H            0.67032414191065       19.34674251269501       10.80803081983113
H           -0.38479273574094       20.15622451052021       11.98253223447905
H           -0.49313146809727       18.38225178818733       11.74775020796025


--Link1--
%mem=16GB
%CPU=0-71
%gpucpu=0,1,2,3=0,1,2,3
%oldchk=1cif_II_S.chk
%chk=1cif_II_Sn.chk
# apfd/def2TZVP int=(grid=ultrafine) geom=check guess=read pop=nbo scf=qc

1cif_II_S_nbo

0 1


