%mem=16GB
%CPU=0-71
%gpucpu=0,1,2,3=0,1,2,3
%chk=1co9_II_S.chk
# polar def2tzvp apfd int=(grid=ultrafine)

1co9_II_S 

0 1
Fe          35.26239353777342        4.01545756925062       10.22197739043648
N           37.16879196172683        3.76388892238868        9.71108332617483
N           35.01731048773082        5.31977141210835        8.71608873545083
N           33.34727277741437        4.34383304305042       10.78758010984479
N           35.50284502914688        2.79471036155021       11.78618653293806
C           38.06826785537728        2.93939274252546       10.30725011864699
C           39.30823608974854        2.91124477007521        9.56277236753893
C           39.14637059377591        3.76793179470787        8.51898109723979
C           37.80465876425096        4.29687468717733        8.63380810675483
C           35.94786095240950        5.66050946727031        7.78249539656617
C           35.39648566405720        6.57656938163716        6.81645926977409
C           34.08925306143983        6.77124398779172        7.17500865782378
C           33.88079131256910        5.97739651150905        8.37103425604639
C           32.47591288147087        5.23727474923192       10.24042749675225
C           31.28342515413565        5.35220350361183       11.03692411062802
C           31.47652720880412        4.55269141714808       12.13339922146452
C           32.77361483421516        3.93202924926908       11.94973327957611
C           34.58936796084174        2.48883968239592       12.74372422038190
C           35.15874668919906        1.59689897852208       13.73127314710674
C           36.44903510668596        1.39090339489902       13.35739854459485
C           36.64031573523460        2.13594862961453       12.13126074852615
C           37.84200177190163        2.19919457426577       11.45330982581148
H           38.66261601161502        1.61207588683131       11.83668679611784
C           37.25182272473177        5.19501776242878        7.74210916757380
H           37.88498196392682        5.55479542701998        6.94507106156669
C           32.69360931431590        5.95172260382280        9.07496865130335
H           31.89161570552279        6.58196247476892        8.72220351402994
C           33.30960417908631        3.00261446822933       12.82350550676951
H           32.71396555887834        2.71524159133546       13.67639320833493
C           40.10472644206543        4.13058495208393        7.43613104883705
H           41.04945607824668        3.60810140441551        7.56491899932032
H           40.30259524551125        5.20265323261591        7.44300185405068
H           39.69918254902543        3.86899886174625        6.45807623560648
C           40.49321089992805        2.08671098134792        9.93347235482211
H           40.22907509284629        1.02947508202963        9.96436033120209
H           40.86471691148083        2.37040687060392       10.91851077211892
H           41.29773615577091        2.21830258087912        9.21397696535349
C           36.11688892505882        7.11000643719967        5.62702768876777
H           36.77471755639068        6.35422607915216        5.20009363984537
H           36.72735701366914        7.97322204494455        5.89716162131872
H           35.40283033102965        7.41960337732234        4.86645595204518
C           33.07331426611366        7.57658065434005        6.53421715710439
H           32.06268008982246        7.18923209107235        6.59640144746382
C           33.28352596852610        8.72612439193805        5.90083610467480
H           34.25649855178613        9.18265653992692        5.84961680230295
H           32.47762581331818        9.26733705547980        5.43318934332696
C           30.08952340863388        6.16770355548593       10.68179235009163
H           29.89034049695296        6.11091006847765        9.61262418277923
H           30.24022352925910        7.21725433226708       10.94066686754558
H           29.21600979227318        5.80326755501919       11.21855713170044
C           30.59507403753008        4.31268539962554       13.25445511477665
H           30.63480676770635        3.31626682582299       13.67930265968367
C           29.77083373041246        5.20596096349527       13.79243879524418
H           29.72199191556530        6.22349849425656       13.44588193527333
H           29.12996847469406        4.95364116989343       14.62101680160765
C           34.42102482251486        1.07059816037825       14.91459556817124
H           33.52768075092182        0.53052155994066       14.60038353861891
H           34.11010998313407        1.88654153636478       15.56796250192518
H           35.04647646602674        0.39217926221952       15.48970445026377
C           37.50480205578019        0.57116844073106       14.01669810650500
H           37.85851356973020       -0.21104690088510       13.34458268864063
H           37.12260900665462        0.10068124071064       14.91933347158241
H           38.35768356227351        1.19310042914463       14.28945579206528
O           35.76900000000267        5.77099999999476       11.56900000000520
H           34.93599999999950        6.15999999999982       11.83600000000206
H           36.57800000000155        6.02699999999379       11.83499999999948
C           32.76223906036329       -0.48553222211684        8.10999831361446
H           33.36460698840096       -1.37066312202343        7.90557113087812
H           32.07964638501214       -0.33714979041066        7.27333425991001
H           32.17861655497067       -0.66153421985630        9.00809210238148
N           34.46352633321104        1.17719869424289        7.32738222488320
H           34.57953244338714        0.77989453007530        6.40964635704582
C           33.62496537228600        0.70735612574457        8.30420193979746
C           35.09737729684920        2.26577491987695        7.82027417482031
H           35.81518723494344        2.84175059235583        7.27309724420314
N           34.71136996236739        2.51263268010297        9.04859105653192
C           33.79626586226957        1.55127045666226        9.36373714733470
H           33.32622331507102        1.53390704281251       10.32487268233848


--Link1--
%mem=16GB
%CPU=0-71
%gpucpu=0,1,2,3=0,1,2,3
%oldchk=1co9_II_S.chk
%chk=1co9_II_Sn.chk
# apfd/def2TZVP int=(grid=ultrafine) geom=check guess=read pop=nbo scf=qc

1co9_II_S_nbo

0 1


