%mem=16GB
%CPU=0-71
%gpucpu=0,1,2,3=0,1,2,3
%chk=1ltw_05_opt.chk
# opt apfd/gen scf=maxcycle=999

1ltw_05_opt

0 5
Fe          35.55347884240995        4.40545473953883       10.46917497489039
N           37.29500690781440        3.84038128621033        9.69154043606699
N           35.14266043783356        5.53911406238117        8.83597477643366
N           33.47033917805927        4.54426795985490       10.98797490862552
N           35.77803652973850        3.08906428633102       11.97805401719210
C           38.23404819561919        3.07223711054664       10.29686273101294
C           39.43378652939448        3.02105378074714        9.48809813142889
C           39.20508374805450        3.80533545938459        8.40100417677776
C           37.86541159578466        4.34265995652326        8.54915718981309
C           36.01111253318153        5.82103458903932        7.82642706439649
C           35.44632951315009        6.74016583737523        6.91285936039875
C           34.16535861978107        7.03023057184171        7.39087026447150
C           34.00089805191817        6.24073108709559        8.58259812347919
C           32.57951124528078        5.39232798335933       10.43553152924528
C           31.33407887409179        5.35553734182183       11.17238134164019
C           31.52206417957603        4.48308214735567       12.21080668644562
C           32.88937328809873        3.99356232449006       12.08946558469300
C           34.86837799116324        2.75174171097464       12.92606792125144
C           35.45337887264470        1.86836385798820       13.88637256930196
C           36.75753542482740        1.66681436170545       13.49127253818035
C           36.93472499760684        2.42431147448489       12.29335014033058
C           38.08509363067968        2.41735457378890       11.50851765662093
H           38.92242496127427        1.84092465748440       11.87038323176459
C           37.29846177624823        5.24823765958106        7.69728425526773
H           37.89061160672061        5.58070108237272        6.85888974195736
C           32.82193692956105        6.18990636451505        9.32694416814679
H           32.01697822908316        6.83222930889785        9.00471021046124
C           33.52289168420667        3.17373826784590       12.98422966782319
H           32.95829886225499        2.83151427726640       13.83817282034334
C           40.10329071649568        4.11369227750489        7.25448561228594
H           41.03056100187425        3.55138673236336        7.32602182865210
H           40.34608993838786        5.17601525377035        7.23896488845509
H           39.61880000080692        3.86373155410407        6.31093854536437
C           40.65147516966275        2.24395953460397        9.85233146802928
H           40.41075247539013        1.18827041864609        9.97766041305040
H           41.06724785633514        2.60988827325792       10.79073377516931
H           41.41285823769611        2.33427712139407        9.08219256609661
C           36.07960062388948        7.22100104537376        5.65335871927322
H           36.74181810942522        6.46337312013719        5.23856988528185
H           36.66789307591928        8.12277492297227        5.83142004522318
H           35.31387746319406        7.45164424133323        4.91528919439060
C           33.16927491223667        7.90432211946170        6.83542563599617
H           32.14201914083494        7.66336509743977        7.08325595025484
C           33.39661888697889        8.97542904472881        6.07245969327745
H           34.38791849403411        9.31525663946554        5.83450658408095
H           32.58349716206765        9.57036438297158        5.69167221264835
C           30.10283161614315        6.10018331554125       10.79446974644552
H           29.98903136677743        6.13259185478852        9.71191482238697
H           30.14666352420143        7.12699245572079       11.15988770800426
H           29.22676050778630        5.61837449559801       11.22385079035682
C           30.60100313658759        4.06660337230867       13.24380255149750
H           30.73205420499048        3.05163502989426       13.60085703325672
C           29.64636886587823        4.82151856367256       13.77888386522859
H           29.50770522443653        5.85139512410597       13.50172687763145
H           28.98957398994729        4.43892239155715       14.54221074303093
C           34.74169664986059        1.31030537451781       15.07138051246536
H           33.87575414182606        0.72347224446694       14.76259422708752
H           34.39245069189153        2.11301074288800       15.72085756962315
H           35.40103017151599        0.66730639611424       15.64862669411459
C           37.81529379467656        0.83454707520811       14.13127476856446
H           38.13115098373307        0.02942458619161       13.46630155222226
H           37.45210205323792        0.39154778233496       15.05478659093199
H           38.68936143304374        1.44245700703399       14.36330424736987
C           32.28074955357530        0.78673999524936        7.00403620505950
H           31.58695305612048        0.11855427300233        7.51408637506436
H           32.76395554611084        0.22867505641518        6.20209146641296
H           31.71755125755661        1.60583023239892        6.56788758636702
N           34.14949463875804        0.51731122030443        8.65040976053609
H           34.18653092054564       -0.48777721897817        8.59511489359646
C           33.28718521950696        1.32457505837005        7.95280550534635
C           34.92407786469543        1.31455642497487        9.41702167803084
H           35.69261442041059        0.95724609110137       10.07141337670677
N           34.60848480606990        2.57077819841017        9.24918508242838
C           33.59359493934087        2.59774540389234        8.34302006444726
H           33.15486077233840        3.52422806480796        8.03586712913840
O           36.55738294895322        5.67925415955397       11.25496019221783
O           35.50684519818655        6.14116532822620       11.86110714840937

C N O H 0
6-31G*
****
Fe 0
TZVP
****


