%mem=16GB
%CPU=0-71
%gpucpu=0,1,2,3=0,1,2,3
%chk=1bgp_II_S.chk
# polar def2tzvp apfd int=(grid=ultrafine)

1bgp_II_S 

0 1
Fe          18.08888113104415       17.29044404822462       15.08074574372449
N           19.75963025837253       18.11779635825580       14.38154822565551
N           17.55677481775058       16.81926177015403       13.22460972136060
N           16.71205579155837       16.03340766243914       15.79308364690627
N           18.67948304452652       17.66215634869121       16.93661151239852
C           20.69695354302550       18.79656170609196       15.10031246641516
C           21.72651957822191       19.32513246152493       14.23458329321803
C           21.41464817632565       18.91656295773913       12.97562478290218
C           20.17013460197482       18.18776828670650       13.08133677879083
C           18.20209156901344       17.14129265780098       12.06854824851467
C           17.43448619704463       16.73672887635689       10.92111774227713
C           16.33283328719257       16.08798829670485       11.40342204231457
C           16.44850277129211       16.11951540289816       12.84764206944880
C           15.82637636603991       15.29175522413361       15.06591790350983
C           15.04273835459949       14.43740405311673       15.91836600453153
C           15.43848066317032       14.70761645853931       17.20196042938117
C           16.46913808590046       15.72071322470545       17.09604982822777
C           18.07840583351136       17.26826982255460       18.09357298718353
C           18.65186189878735       17.95422013207092       19.22914725596127
C           19.68408671693954       18.69516998579116       18.74361509685355
C           19.70299414846666       18.47827670533715       17.31417707153849
C           20.66089006510709       18.99910488244522       16.46652616548971
H           21.44624268011667       19.59557941814278       16.90485929352276
C           19.42507482021602       17.78533001618032       11.99166569640246
H           19.84108945524656       17.95032993904815       11.00936402513529
C           15.64532691163510       15.38855694460378       13.69838525250707
H           14.82321200697574       14.84495301781987       13.26087363665095
C           17.07763122388986       16.31948655040947       18.18240747516744
H           16.73551866916216       16.04388758021229       19.16826837314285
C           22.13990287782212       19.15785233224388       11.69619552310461
H           23.09748089653399       19.63883916751690       11.87972505097578
H           21.55572420344489       19.79987466888847       11.03541832039157
H           22.32148633473041       18.21644322110323       11.17850957329839
C           22.89405195316517       20.12172787800218       14.70637253685824
H           23.48041748146918       19.55170407743966       15.42701246701660
H           22.56010936130005       21.03870737334607       15.19243076444138
H           23.54010981089302       20.39117386046146       13.87462574638378
C           17.83426935665460       16.94399742212528        9.50104970969467
H           18.74259762731353       16.38524027619708        9.27355813181305
H           18.02942883644899       17.99840591352570        9.30346263254983
H           17.04827748484767       16.60139529571169        8.83254274102246
C           15.27906315096302       15.46712825259624       10.61715716289332
H           14.86595109018643       16.08918931246626        9.82919323664672
C           14.83389514024001       14.22639190190561       10.76149121021927
H           15.25052448702380       13.55170561339864       11.49019520728781
H           14.05218079498489       13.82978830504931       10.13496100096697
C           14.06071928124140       13.42651760866633       15.43952729773019
H           14.40217520656510       12.96949981373280       14.51233746609347
H           13.08908374506468       13.88652301528453       15.25145895077581
H           13.93261719934454       12.64645954889831       16.18735865565577
C           14.99172925887314       14.11747728060249       18.44419085470197
H           15.74279070487448       14.04445474927654       19.22223020293187
C           13.76206563667668       13.67801098968636       18.69229213339923
H           12.96556449729093       13.76709339646757       17.97452906501786
H           13.50367562534714       13.23396089880979       19.63927965262653
C           18.18196578130883       17.79066817706178       20.63368937741357
H           18.35361328025371       16.77064098982014       20.97865970905440
H           17.11429522908035       17.99648047893459       20.70721665944218
H           18.71037524613694       18.46846385749325       21.29941716999329
C           20.63907672608657       19.57644238564698       19.47263673256735
H           20.37294303413856       19.64828499900635       20.52422796425716
H           20.63818970023661       20.57956903972027       19.04663734842671
H           21.65250032838089       19.18038079633671       19.40334241902374
C           14.50138414703439       21.39865971962171       16.27928395782571
H           14.23279753650018       20.97656959590596       17.24248837266002
H           13.60222696574744       21.47103779483657       15.66750810419753
H           14.89053356442725       22.40472842169609       16.43378519491297
N           16.08711006888383       20.85486460807412       14.41994258955894
H           15.88562331315635       21.67574669106378       13.87291426060235
C           15.51666397406800       20.53624353376215       15.62386785519234
C           16.96028027091809       19.87136861317886       14.10550323578354
H           17.55405861812412       19.85668336667983       13.21383874079181
N           16.97811684882963       18.94649744960243       15.03799045949507
C           16.08267757263171       19.34848905765601       15.98938671788570
H           15.90861308365082       18.75834746179315       16.86621506732214


--Link1--
%mem=16GB
%CPU=0-71
%gpucpu=0,1,2,3=0,1,2,3
%oldchk=1bgp_II_S.chk
%chk=1bgp_II_Sn.chk
# apfd/def2TZVP int=(grid=ultrafine) geom=check guess=read pop=nbo scf=qc

1bgp_II_S_nbo

0 1


