%nprocs=12
%mem=16GB
%chk=1a6n_II_S.chk
# polar def2tzvp empiricaldispersion=gd3bj apfd int=(grid=ultrafine)

1a6n_II_S 

0 1
75
 xtb: 6.6.1 (8d0f1dd)
Fe          14.38325300355955       27.85241867280144        4.95305442934269
N           14.77485232559405       29.11232357839434        6.49078240871046
N           13.73594296093320       26.48925367582693        6.28657943193774
N           14.49811436271598       26.41989301554353        3.57144556484838
N           15.58165003858926       29.02398353463925        3.81118150253412
C           15.28210464179398       30.37510781183070        6.41547179862368
C           15.19462526841849       31.04695925740907        7.69229418529680
C           14.63180148560787       30.15732988667922        8.55320869109888
C           14.35290850728052       28.96650128333791        7.78143849957245
C           13.42747651673166       26.70156445824080        7.59774130905543
C           12.76375978608856       25.55764168605797        8.16619276646382
C           12.67041668700304       24.62941846773816        7.16294921930042
C           13.29476559221524       25.23173974875934        6.00235728951435
C           14.04740030971089       25.13397683254169        3.66765986981178
C           14.23038384159519       24.42323677839748        2.42954426931132
C           14.86233151958130       25.29229762733816        1.58026328925885
C           15.01754887588399       26.53111429686357        2.31685954701987
C           15.84682112896409       28.83052436526955        2.48686616021523
C           16.48631468020659       29.98988336891180        1.90925391466698
C           16.57760074004399       30.90979007788138        2.90703607397858
C           15.98061351764255       30.30114542731430        4.07290418661620
C           15.86578511581230       30.93432201627461        5.29458553214092
H           16.23683533759412       31.94458855258492        5.37373739272602
C           13.73019690811305       27.85180933742178        8.30501179287941
H           13.45661340464299       27.88202542613488        9.34864534209893
C           13.42129719449003       24.59967530761784        4.78037844906698
H           13.05262518555857       23.58813508509391        4.70336637372406
C           15.59213446455546       27.66898864214785        1.78426566429654
H           15.88941572435710       27.64016655613763        0.74719800595701
C           14.32230332158034       30.31346580350242       10.00255890914812
H           13.25253859770078       30.20235677163723       10.18326270804914
H           14.63044708342833       31.29291675964155       10.36000033357206
H           14.84416237378779       29.55604268191491       10.58725748511958
C           15.67740825189403       32.43346178377112        7.94754866487522
H           15.21163552135089       33.13643990026842        7.25640400285184
H           16.75794991709349       32.49266183659442        7.81241493801335
H           15.44270750161369       32.74395799167110        8.96300128106244
C           12.23638958789240       25.47491612264854        9.55603703824001
H           11.82946048033360       26.43399439281254        9.87291823714136
H           13.02618853502832       25.19545978204492       10.25521067308110
H           11.44872120832411       24.72617970070872        9.61152596289858
C           12.08465945992488       23.30662594330338        7.19052552758138
H           11.61841762330947       22.98211974626177        6.26736544326239
C           12.08635395620653       22.48543135855432        8.23525930093548
H           12.57619425698427       22.73593530962901        9.15986738693617
H           11.61912312541956       21.51564574620978        8.19024791222375
C           13.89579264437339       22.98961576781441        2.20836370787000
H           12.83778937260810       22.87047105320119        1.96798303142506
H           14.10730643407615       22.40265132234966        3.10080855820878
H           14.48245512360308       22.59230672007786        1.38250679582718
C           15.32014555609260       25.07598264371810        0.22526236906718
H           16.23134277352709       25.59474522497665       -0.04892470302641
C           14.71482451815058       24.31261502762183       -0.67864487538963
H           13.78430152463288       23.81179487963152       -0.47480744962288
H           15.11954794600787       24.18336851615320       -1.66863741165408
C           16.93884151169053       30.08343849987908        0.49275415195152
H           16.10052583126814       29.93441865510367       -0.18793470791337
H           17.68770354945067       29.32032966227519        0.27954706953514
H           17.37665126574647       31.05778550216428        0.29026300387179
C           17.15543407809934       32.28290403911458        2.87798612004555
H           16.39218621972095       33.02605017518097        3.11188848430702
H           17.56452328532441       32.50932334780629        1.89631191255212
H           17.95532206228642       32.37645185360390        3.61274862287455
C            9.51596437805080       28.98986389140437        2.40221522070111
H            9.43233028090246       29.93341601716752        1.86329122726053
H            8.59225611252651       28.83223584291387        2.95867208414519
H            9.62986306362152       28.18646138413303        1.68141141258797
N           10.80880672631237       29.91520063769057        4.33553230913430
H           10.14665855754932       30.63891976955568        4.56226688806214
C           10.68489234598172       29.00769276535950        3.31726455480929
C           11.97421551262441       29.66044762534115        4.97289426573665
H           12.32908872304507       30.22002523897146        5.81438199476014
N           12.60037578484907       28.64499793162666        4.42163712705128
C           11.80504031774042       28.23026870869623        3.38826576301045
H           12.09156457298996       27.40579089010221        2.76801370774986



--Link1--
%nprocs=12
%mem=16GB
%chk=1a6n_II_S.chk
# apfd/def2TZVP empiricaldispersion=GD3BJ int=(grid=ultrafine) geom=check guess=read pop=nbo scf=qc

1a6n_II_S_nbo

0 1

--Link2--
%nprocs=12
%mem=16GB
%chk=1a6n_II_S.chk
# apfd/def2TZVP empiricaldispersion=GD3BJ int=(grid=ultrafine) geom=check guess=read scrf=(smd,solvent=Chloroform) 

1a6n_II_S_solv 

0 1 


