%mem=16GB
%CPU=0-71
%gpucpu=0,1,2,3=0,1,2,3
%chk=1csw_II_S.chk
# polar def2tzvp apfd int=(grid=ultrafine)

1csw_II_S 

0 1
Fe           2.83007040527338       20.89882824116538       13.08764455204920
N            4.27836144402782       19.83647563619346       12.25457112159856
N            3.38949796620999       20.23964777619602       14.89141463920084
N            1.38081264260643       21.96811428304930       13.96253360590643
N            2.16083018546690       21.45482665917916       11.28106109007805
C            4.55906767163690       19.77243770967238       10.92700112137258
C            5.55606448622834       18.75619790671312       10.66659742404663
C            5.80933394929779       18.15691534456738       11.86019293430305
C            5.01976097767954       18.86484162288506       12.84468750998706
C            4.32714289113606       19.29184683929818       15.15476308110139
C            4.55585795943849       19.18163947230567       16.57763808533432
C            3.69375122359071       20.05209898622272       17.17083801836237
C            2.98014818297634       20.70821531417343       16.09902413154697
C            1.24301690090685       22.23207030256152       15.28790215138993
C            0.13855668481165       23.14040345482464       15.52022903948922
C           -0.37674639582303       23.43114889280349       14.28458473436184
C            0.43999494202070       22.72450384390430       13.33092955651227
C            1.13118100534560       22.30149617058597       11.02099956092105
C            1.10852725551648       22.65756679800288        9.61662620546818
C            2.23729040072072       22.10326880803052        9.07333425742148
C            2.89065846306932       21.38397963561516       10.13438739372256
C            3.99271840415815       20.56602757795433        9.94804838742011
H            4.40290120303980       20.50220616408158        8.95147315375833
C            5.04230427122013       18.59066974945322       14.19871913583052
H            5.70795514075343       17.81371557927137       14.54286525550378
C            2.00287717513217       21.66593932189367       16.29493307267002
H            1.78175986277286       21.95024480342902       17.31209910597929
C            0.23652590920562       22.78033564882063       11.96198119331759
H           -0.55742846824822       23.41774817007049       11.60545010366470
C            6.10321278789580       18.44260382470382        9.31634268047450
H            6.55989841882511       19.32802213215456        8.87343216995998
H            5.30914171679760       18.10358591678774        8.65064819617711
H            6.85749604311423       17.66178118377665        9.37574006042122
C            6.72553898355877       17.02461353997846       12.17512531723761
H            6.17546275282428       16.21192261885415       12.64920894431950
H            7.51303436688335       17.34359989435849       12.85902035570509
H            7.19195405528451       16.64110524152075       11.27102155559769
C            2.71808126986523       22.17546192813032        7.66552235491526
H            2.65983570346330       21.19557110840064        7.18968072495266
H            3.75657074414162       22.50498182786977        7.63122046154333
H            2.11119474691366       22.86839947005259        7.08782757716095
C            0.10817139795745       23.44465188504450        8.92450982109531
H            0.49252795926057       24.12417378307979        8.17080157374016
C           -1.20475917934242       23.36356962003741        9.10768551937729
H           -1.64402586332224       22.66713972302414        9.80184345579678
H           -1.89128881207090       23.97715686473627        8.54815401652958
C           -1.48393899824028       24.36600397603675       13.94209265048883
H           -2.41377925576031       23.82181493802603       13.76711920699261
H           -1.25007600060686       24.92930883807958       13.03983387663989
H           -1.64576736163803       25.06723356391077       14.75837143251679
C           -0.27551351645378       23.61577468582354       16.82142199090259
H            0.52010617354229       23.74359582868977       17.54658993974059
C           -1.52496449616749       23.89035702725067       17.18201360940351
H           -2.35961493907628       23.73642959456773       16.52058194304401
H           -1.75922820187205       24.25602407010763       18.16808624383174
C            3.48952349343006       20.34176672787139       18.61821295115694
H            2.45929692123888       20.13202923951064       18.90701960555597
H            3.69327002612388       21.39105335449787       18.83383837682073
H            4.14758667296268       19.73160782235351       19.23216201730272
C            5.53053778574840       18.24276124193386       17.20224734716271
H            5.28883703021458       17.21126435818489       16.94421590130319
H            5.51819553286223       18.33642475681856       18.28541407381274
H            6.54197164770884       18.44945691690914       16.85133562205891
C            5.12178902103579       25.96360540255457       12.86770730781277
H            5.34778358979589       26.46037739116102       13.81122971013132
H            4.24199093245201       26.42729344557435       12.43268007587960
H            5.96516890082612       26.11270357215863       12.19352576794176
N            5.80640708276861       23.67172157794728       13.61074187677585
H            6.73449274772952       23.93219013546866       13.90119217446906
C            4.86655552927552       24.51659034778404       13.08107673911408
C            5.25984611961950       22.43617270079334       13.67010780159152
H            5.76511978223915       21.56940771430828       14.04276005838596
N            4.03224013106687       22.44850470181895       13.21088829475907
C            3.77293309823771       23.73496837192635       12.84081679324939
H            2.82402958388595       24.01110113253297       12.42932292172950
C            1.04254882212117       17.73345057354185       15.42124953078283
H            1.04479185810919       16.75828303228088       14.93994038108050
H            0.46213522628360       17.67197911882501       16.33978769413617
H            2.06555891084227       17.99496883532226       15.67435001162395
C            0.44285204655087       18.77703667402277       14.49872643842327
H            0.44061211121005       19.76022409305301       14.96531861998511
H           -0.57153876201768       18.50080930778917       14.21276804583399
S            1.41819202561572       18.89286489531313       12.94272668229445
C            0.05286311529290       19.28012226549724       11.80505328968447
H            0.49191352636452       19.42610559327155       10.82418542028609
H           -0.44233548413790       20.19162550345822       12.12372403578417
H           -0.63923226256440       18.44223539808576       11.78324913083914


--Link1--
%mem=16GB
%CPU=0-71
%gpucpu=0,1,2,3=0,1,2,3
%oldchk=1csw_II_S.chk
%chk=1csw_II_Sn.chk
# apfd/def2TZVP int=(grid=ultrafine) geom=check guess=read pop=nbo scf=qc

1csw_II_S_nbo

0 1


