%mem=16GB
%CPU=0-71
%gpucpu=0,1,2,3=0,1,2,3
%chk=1cpw_II_S.chk
# polar def2tzvp apfd int=(grid=ultrafine)

1cpw_II_S 

0 1
Fe          35.45582877558984        3.94139665296586       10.29616476251862
N           37.38027062993605        3.67213121641768        9.80811627477654
N           35.28044739180916        5.29994021613256        8.82811747814097
N           33.56323053627266        4.31362278169461       10.86570465348834
N           35.67940273238268        2.72114005924169       11.86410249373510
C           38.24145695529565        2.78833590738714       10.37802893689719
C           39.46983901380432        2.70534994484685        9.61868826287956
C           39.31842253643456        3.54025195721471        8.55609578710926
C           37.99928156523981        4.11972703863466        8.68274798890550
C           36.20044251653276        5.57548691278008        7.86300922862513
C           35.68086498621603        6.52493584708521        6.91243131043151
C           34.39486691481502        6.79246760610645        7.30078055533311
C           34.15769394058299        5.98083596968007        8.47980345049483
C           32.67760827043588        5.14764934062800       10.25368880439303
C           31.40318460326012        5.12020720629851       10.92297839741181
C           31.57850046195128        4.35795977702298       12.04923449042755
C           32.92528568741784        3.82633633871375       11.96148672842227
C           34.75935788607460        2.44424735406785       12.82551602465736
C           35.31147905758500        1.55057509263741       13.82142078932377
C           36.61292738542229        1.35921369770186       13.47892887596868
C           36.81306734575066        2.07036001656993       12.23443634813487
C           37.99733561679218        2.05408425976671       11.52344749320303
H           38.79674366464720        1.43356250938316       11.89891203748408
C           37.46743375202065        5.02175617660535        7.78223414329015
H           38.08747730757104        5.31427699996559        6.94823887587209
C           32.94614514444572        5.92330417058329        9.13968975502132
H           32.14345168024110        6.53867495384446        8.76315042653718
C           33.47179003467235        2.94355528458048       12.87578968755585
H           32.85673071989429        2.64102050308644       13.70949816486935
C           40.26866229634868        3.84268800746832        7.44792283928568
H           41.20453394362178        3.30625011362839        7.58374054444384
H           40.48736146803099        4.90999630626859        7.41117293247696
H           39.84453404327546        3.55203240425590        6.48604708983854
C           40.62986837296859        1.84404649961348        9.98468078044289
H           40.34467937809109        0.79172251452433        9.96930973500330
H           40.98414672095439        2.08289757321726       10.98739780930965
H           41.45277922358482        1.98601129899697        9.28825700456342
C           36.40568811492729        7.02679756962800        5.71216741826634
H           37.00141423807935        6.23514610478094        5.25947189024602
H           37.07875124911195        7.84381103082920        5.97688925960837
H           35.69514702052296        7.39286330631223        4.97370493275484
C           33.41756486202014        7.65896416746353        6.68050288215032
H           32.38736361246362        7.32858686364049        6.74808516754008
C           33.68532446565428        8.80279428520558        6.05848234154169
H           34.68152207402403        9.20576107841753        6.00442558843468
H           32.90657730551607        9.39354655202935        5.60518847469440
C           30.17651640175472        5.82614275260733       10.46126984015232
H           30.09571145670805        5.78208598292525        9.37616996392121
H           30.19279789927378        6.87693707336293       10.75628562815052
H           29.29372368750801        5.36161610207369       10.89612788975415
C           30.62435609483896        4.02396726750942       13.08294674203617
H           30.73236393987860        3.03938781779577       13.52319782548520
C           29.65980517522587        4.82239405605170       13.52942088758400
H           29.53248671345699        5.82718176945122       13.16645187740633
H           28.97476022545098        4.50255431677680       14.29706374546907
C           34.56025136393314        1.03859725947301       15.00261832624627
H           33.68067146010584        0.47940614939604       14.68303120919803
H           34.22570486774507        1.86228893458748       15.63413740317253
H           35.18441253725770        0.37982587159273       15.60143117459255
C           37.66079737672904        0.54966722990038       14.16297363598755
H           37.96417935193540       -0.29216155856566       13.53942745019065
H           37.29264188646663        0.15950311725522       15.10874781660195
H           38.54325189835513        1.15720437306542       14.36255134108098
O           36.02300000000327        5.66000000000094       11.66899999999509
H           35.21500000000440        6.08100000000711       11.96299999999923
H           36.84599999997600        5.85400000000958       11.94299999999386
C           32.84012538935993       -0.46756925020922        8.14273533009499
H           33.42132459504524       -1.37051755384480        7.95480667680739
H           32.17612674959382       -0.30664086067437        7.29380242741739
H           32.23732913941831       -0.62150304722373        9.03224053600364
N           34.56259618562167        1.17422595832109        7.36141814284443
H           34.65500750952477        0.79164600928564        6.43478765310630
C           33.73129024027889        0.70301775091295        8.34359245983802
C           35.22776711707956        2.23993536907256        7.86378503783727
H           35.94760860254553        2.81169666471590        7.31491437617550
N           34.86790600463083        2.47134678062624        9.10325005776403
C           33.93855235707209        1.52216905021822        9.41587859166476
H           33.48585746067880        1.49474744000674       10.38503537360338


--Link1--
%mem=16GB
%CPU=0-71
%gpucpu=0,1,2,3=0,1,2,3
%oldchk=1cpw_II_S.chk
%chk=1cpw_II_Sn.chk
# apfd/def2TZVP int=(grid=ultrafine) geom=check guess=read pop=nbo scf=qc

1cpw_II_S_nbo

0 1


