%nprocs=12
%mem=16GB
%chk=102m_II_S.chk
# polar def2tzvp empiricaldispersion=gd3bj apfd 

102m_II_S 

0 1
Fe          35.47979787013904        3.94985314142324       10.19638525347700
N           37.34090720649876        3.67607691366734        9.51137906777467
N           35.09907016567846        5.18036557667566        8.66077129708964
N           33.64897758132160        4.31548817779603       10.94622451743761
N           35.88251264534338        2.76889453563987       11.76011708614227
C           38.31009532406367        2.89932432252779       10.06252763678356
C           39.52070179783980        2.95021586838438        9.27257061302213
C           39.25375403168091        3.76859793838391        8.22002067090122
C           37.88942163384908        4.21836114987139        8.39175389611753
C           35.95053933846217        5.52938811272845        7.65950728662169
C           35.32571464318563        6.45594307854036        6.74976547869639
C           34.06678988551199        6.68311230579795        7.23729648294548
C           33.95116809664074        5.87048047011229        8.43409661650985
C           32.71435444061893        5.16539802291221       10.43614549953816
C           31.59367248799121        5.29488421233666       11.33021324978394
C           31.86996943052574        4.49640910925430       12.40958556676586
C           33.16068428303436        3.89397908338612       12.14100203289453
C           35.07867797828036        2.52805894571222       12.82944654042488
C           35.75461094575606        1.69958428386404       13.80431097470354
C           36.99964764166341        1.46892333990607       13.30985556499482
C           37.06153381244805        2.15015774010722       12.03503907470998
C           38.19222559938732        2.18509333553219       11.24100560234026
H           39.05662056692563        1.63351258351829       11.57857747562813
C           37.25260742263080        5.08103806936701        7.52310939952235
H           37.82015072289943        5.44558462075693        6.68058312047021
C           32.83671383453214        5.86967824706485        9.24994662337102
H           32.01264006971644        6.50653285782521        8.96631757154978
C           33.80980314847220        3.04138393848036       13.01479315044585
H           33.30293808427196        2.78702109023772       13.93300197361615
C           40.13907286586934        4.17734110467208        7.09282785487707
H           39.70240018236693        3.88496258124724        6.13754890501833
H           41.11721249895813        3.71036146914220        7.17935455121332
H           40.27522247366182        5.25903322603318        7.08463078915019
C           40.77391773943712        2.21419220843799        9.60442601063527
H           40.59132537220802        1.13971445697380        9.64256623625965
H           41.15531454546053        2.52584395440821       10.57722442254959
H           41.54291177793628        2.40411495723925        8.85951151043766
C           35.94614370432054        6.98566568618603        5.50422320983708
H           36.53631430555343        6.21509783051424        5.01037418126207
H           36.60570679160789        7.82677296969279        5.72450635211792
H           35.17334451889735        7.32617349836817        4.81798061086208
C           33.01464861278641        7.51940668053724        6.70358722239896
H           32.00443840886730        7.15676665902666        6.85681895985087
C           33.19316213686792        8.67111441496061        6.06444728273063
H           34.16844867922170        9.10371198865283        5.92526162575032
H           32.36092718282662        9.23690826181542        5.67936557018103
C           30.36757149004694        6.09526129030000       11.05922480654335
H           30.08594128212292        6.02596028470250       10.00946257626284
H           30.52831228928017        7.14868371995146       11.29534806493085
H           29.54165351929625        5.72956407286207       11.66590254439825
C           31.07586590666456        4.25141503345986       13.59297678783675
H           31.15524517940522        3.25434316581407       14.01068165251057
C           30.28705158554915        5.13822987801256       14.19135277561252
H           30.20567451753527        6.15567032146690       13.85046858938028
H           29.71149698634130        4.88109954568123       15.06517798227045
C           35.14781657332232        1.24320897307673       15.08674136956524
H           34.23071826366195        0.68466324425391       14.89885676585019
H           34.90002434120689        2.09622073810083       15.71922278218392
H           35.83445414886333        0.60111952004088       15.63318115065215
C           38.12311656096215        0.68929468072288       13.90336784702665
H           37.83010279786976        0.25242899077548       14.85487917511871
H           38.98747662797753        1.33172442962495       14.07362056918354
H           38.42831436110220       -0.11660054879984       13.23525170477349
O           36.14400000000896        5.75400000001953       11.40300000000273
H           35.35500000003128        6.17900000002203       11.74000000002736
H           36.98299999999698        5.97400000002357       11.59700000000582
C           32.47576582956602        0.49696881594430        7.02125478905240
H           32.89039424588884        0.18175234933932        6.06381376631578
H           31.69776371936733        1.23144094421354        6.83856513156693
H           32.02863137330286       -0.37304956402144        7.50206017771215
N           34.64127101426197        0.39510787728610        8.27510513848227
H           34.85432645931289       -0.55806567175323        8.03092303001235
C           33.52886666046260        1.09247711219914        7.88222009700421
C           35.39009000774818        1.21774848699969        9.04456541109179
H           36.32115349036101        0.93927462537690        9.49370493351631
N           34.81967785984450        2.39229409766715        9.16195188121710
C           33.66120727892735        2.32970012578878        8.44439109319415
H           33.00568639777928        3.17322080835131        8.38182784072486

--Link1--
%nprocs=12
%mem=16GB
%chk=102m_II_S.chk
# apfd/def2TZVP empiricaldispersion=GD3BJ int=(grid=ultrafine) geom=check guess=read pop=nbo scf=qc

102m_II_S_nbo

0 1

--Link2--
%nprocs=12
%mem=16GB
%chk=102m_II_S.chk
# apfd/def2TZVP empiricaldispersion=GD3BJ int=(grid=ultrafine) geom=check guess=read scrf=(smd,solvent=Chloroform) 

102m_II_S_solv 

0 1 


