%nprocs=12
%mem=16GB
%chk=1a2g_II_S.chk
# polar def2tzvp empiricaldispersion=gd3bj apfd int=(grid=ultrafine)

1a2g_II_S 

0 1
78
 xtb: 6.6.1 (8d0f1dd)
Fe          -6.00246509783596       57.09265271916533      111.81615358509612
N           -6.66578451192777       56.17163343740897      113.48141788746214
N           -6.91764744353520       58.76936840723433      112.40091772506349
N           -5.11600583735933       58.07277009992070      110.32374815275935
N           -5.06204617829262       55.42033149711605      111.28358134227608
C           -6.50874097733919       54.86067139433308      113.80647524228227
C           -7.10602441414991       54.57776038563355      115.09118568956264
C           -7.66703099596150       55.74248399123834      115.51770469878197
C           -7.38047861838048       56.72707996679170      114.49945012344759
C           -7.58954673749203       58.98727943405297      113.56537397757589
C           -8.11376019969410       60.32771469189475      113.61399407408302
C           -7.70373501786462       60.94256397364678      112.46040098493150
C           -6.88864987772444       59.96710874651649      111.75872410051899
C           -5.29986188078490       59.37666625313431      109.98269095354456
C           -4.48454226126695       59.73105210828803      108.84871480874213
C           -3.75611307031632       58.61311270265887      108.53629512212561
C           -4.19575512053331       57.58180189922199      109.45631522908069
C           -4.21524288540185       55.25731945648486      110.23354126650155
C           -3.86291386523524       53.86315039880377      110.07057195068333
C           -4.47073178826423       53.19656843959596      111.08734087878118
C           -5.18554555342189       54.19354934658953      111.85570806512453
C           -5.85815691655969       53.91881451272734      113.03034241613051
H           -5.84417433307148       52.90086923072619      113.38881234024159
C           -7.80455381619836       58.04064316933669      114.55369539303261
H           -8.36258518330392       58.34562838623133      115.42584831569474
C           -6.15397183445853       60.25455580826604      110.62614020548016
H           -6.23176520592280       61.25212895789667      110.22199486032173
C           -3.77431988250962       56.26587241902320      109.39751779917641
H           -3.07036195718014       55.99894940146022      108.62386748385755
C           -8.41544036743049       56.02605612354323      116.77536822856275
H           -8.49155487551191       55.13254181891671      117.39009890406433
H           -9.42412911943363       56.37438589515708      116.55152051089249
H           -7.91310129102138       56.80027445481171      117.35621783664647
C           -7.08809933095671       53.24149530468759      115.75103817884931
H           -6.06301078346808       52.89791253461550      115.89077413185974
H           -7.61010544293964       52.50441532355668      115.14015180459869
H           -7.57095909936000       53.28313560375894      116.72437036395334
C           -8.88548006530911       60.90694210088484      114.74836300987940
H           -8.49936209647915       60.54676766169878      115.70077195658693
H           -9.93967437795353       60.63090202412494      114.68607973865171
H           -8.81396368415139       61.99260898258616      114.73251197270078
C           -7.94535418143829       62.29649524806153      112.01679051300032
H           -7.14861444279047       62.75375262137759      111.44208216856605
C           -9.05134918984240       62.99783701546898      112.24604737853430
H           -9.89620069874829       62.58323223015070      112.76763550429102
H           -9.15891037049967       64.01021758631586      111.89341315441791
C           -4.39410407409913       61.08980192563099      108.24600064792101
H           -4.47480433447356       61.85963607521297      109.01161890754764
H           -5.19679735046726       61.24734483294988      107.52371381584391
H           -3.44209136946661       61.20851846944870      107.73251417187564
C           -2.75547512206803       58.42483991202074      107.50977250577866
H           -1.95994366698788       57.73122169809480      107.75765682056834
C           -2.74401851003743       59.01772967727400      106.32000751034664
H           -3.53170533210320       59.67747654749413      106.00079313616625
H           -1.95341037922127       58.84014946936371      105.60971682219970
C           -2.98460857347797       53.33909074954251      108.98654326803322
H           -1.97917599081562       53.75183455659005      109.07500883927268
H           -3.37704107476342       53.61446720128785      108.00763821216246
H           -2.91365819516735       52.25531431777438      109.03584058063498
C           -4.44118698568845       51.74296463960071      111.41501758931666
H           -3.89427091670159       51.18686125641462      110.65749614593324
H           -5.45313529257648       51.34216713660044      111.47344042910224
H           -3.95574949664202       51.57675378246149      112.37732807651638
O           -4.25400000000562       57.61899999999875      113.17200000000273
H           -4.52099999999828       57.19999999999647      113.99000000000275
H           -3.52900000000483       58.11899999998952      113.05000000000467
C           -9.43716536674204       55.31198405448256      107.81542924413498
H           -8.63296678467183       55.10211060257326      107.11745548678209
H          -10.10890253091375       56.04227054527762      107.36427034121147
H           -9.99856226106397       54.39419240480962      107.98918815311075
N           -9.64939998798044       56.13901092335365      110.16937424801397
H          -10.65111000029315       56.05045094611758      110.21667359096536
C           -8.86958088531473       55.83125732499771      109.08553761208856
C           -8.83059093730167       56.58137802093885      111.15092474855626
H           -9.16464880357203       56.89462667094332      112.11842481982104
N           -7.58113228731341       56.57196442584778      110.75381065278749
C           -7.58914680287295       56.10859234855668      109.47087593359961
H           -6.67843113590184       56.00659771971444      108.91748718324169



--Link1--
%nprocs=12
%mem=16GB
%chk=1a2g_II_S.chk
# apfd/def2TZVP empiricaldispersion=GD3BJ int=(grid=ultrafine) geom=check guess=read pop=nbo scf=qc

1a2g_II_S_nbo

0 1

--Link2--
%nprocs=12
%mem=16GB
%chk=1a2g_II_S.chk
# apfd/def2TZVP empiricaldispersion=GD3BJ int=(grid=ultrafine) geom=check guess=read scrf=(smd,solvent=Chloroform) 

1a2g_II_S_solv 

0 1 


