%mem=16GB
%CPU=0-71
%gpucpu=0,1,2,3=0,1,2,3
%chk=1cpo_II_S.chk
# polar def2tzvp apfd int=(grid=ultrafine)

1cpo_II_S 

0 1
Fe          36.56944100508125       -0.80862829976991        3.60761339502937
N           38.13908369281090       -1.01229333877480        2.37574502568509
N           36.40862455634963       -2.79880340209798        3.73864165188221
N           34.86042889877774       -0.60401935288426        4.61965060472952
N           36.58623528309066        1.16056004448906        3.23938568198293
C           38.78850902576445       -0.04300850835579        1.67396286977361
C           39.87952153705535       -0.59825676333556        0.90739227520214
C           39.80801160196358       -1.94600775520227        1.06800010364908
C           38.70080567701756       -2.18781758011125        1.96535060170112
C           37.19232401426985       -3.73211319455740        3.12371939087715
C           36.76223801230017       -5.06371323326308        3.45362711436574
C           35.61526605783958       -4.92682568824601        4.18651803308711
C           35.37955343246694       -3.50178818425745        4.29419748368019
C           34.01454393963954       -1.59875828955466        5.01670069772915
C           32.81552411705247       -1.05890724655757        5.60441183130434
C           32.98264327421582        0.29986098182667        5.62462794242113
C           34.22107663759427        0.55813835020380        4.91871077965358
C           35.67811338989575        2.07778246013599        3.67280846626448
C           35.95018967713548        3.38352818210166        3.11576278298871
C           37.05046036713703        3.23933134157126        2.33191906614402
C           37.42328339789314        1.84437648899849        2.41009075788629
C           38.46467591654991        1.29845900762075        1.68859750965160
H           39.04901230247798        1.96168088961690        1.07064154639733
C           38.27974763580140       -3.45341236719068        2.31663280345362
H           38.81093840009627       -4.29151644096481        1.89346154061996
C           34.26077401520935       -2.95256064820595        4.88404895509223
H           33.48997983484040       -3.63601477415361        5.20240186732611
C           34.60194335664157        1.81478267684438        4.49550892487085
H           33.96941431864449        2.64461917461583        4.76948669107735
C           40.66418136805888       -3.01429546656696        0.48104171955722
H           41.45907430701555       -2.58242953600570       -0.12160349110196
H           40.07168618900239       -3.67132947403473       -0.15599132830025
H           41.11715776092366       -3.62079529199558        1.26553732881083
C           40.82134061149808        0.20883511262506        0.08299601096212
H           41.29699782932415        0.97933299015889        0.68936019337626
H           40.29121632216967        0.69970588418677       -0.73363627375580
H           41.59763474129503       -0.42110817706904       -0.34404393027750
C           37.45910405933795       -6.31354928383426        3.04258233532676
H           38.48397830693452       -6.32353843118798        3.41461293110024
H           37.49490040659902       -6.39326111216273        1.95559369483568
H           36.94332860084911       -7.18453602615364        3.43823099633368
C           34.80826051347474       -5.99122720534646        4.75002477936742
H           34.70547212176586       -6.87229718898805        4.12612365467827
C           34.24117113545280       -5.97933901223752        5.95033212577921
H           34.35812245118029       -5.15283152912760        6.63102273602796
H           33.65855214202551       -6.81276828455339        6.30587228621472
C           31.71503923205356       -1.86521375552108        6.19910000988672
H           32.10440856160840       -2.75673226395830        6.68782892050158
H           31.01173343258795       -2.18427921346502        5.42848753680497
H           31.17458412453284       -1.27241334946988        6.93406139864967
C           32.11394795564573        1.33090077708974        6.15053123670381
H           32.62142473556065        2.19860782380407        6.55620711361529
C           30.78631145198236        1.28738152342960        6.17004232678715
H           30.23327544372775        0.47176465028259        5.73791996274353
H           30.20324922100680        2.08660091843652        6.59648952044340
C           35.13813901701919        4.60046868731902        3.39369894052007
H           35.13619401713530        4.82335070989833        4.46068989488987
H           34.10590345934930        4.45206044447508        3.07646383114214
H           35.53888342199287        5.46095253130469        2.86397902488494
C           37.76693233368999        4.25490849906077        1.51100314031940
H           37.32007829225572        5.23759719795291        1.63804298542910
H           37.72422498424742        3.99298354881063        0.45354364173438
H           38.81503979851793        4.31345361867509        1.80413411056641
C           39.32364469886124       -1.68433550107209        5.33119836427266
H           39.77972542504114       -1.85706740911501        6.30083086754382
H           39.99713429256384       -1.11988524000080        4.69508754000087
H           39.05554481322547       -2.61694615799099        4.84653029816882
S           37.82719951380859       -0.65309674611832        5.54757514512099
H           37.18083953105791       -1.54930379210591        6.30588202584242


--Link1--
%mem=16GB
%CPU=0-71
%gpucpu=0,1,2,3=0,1,2,3
%oldchk=1cpo_II_S.chk
%chk=1cpo_II_Sn.chk
# apfd/def2TZVP int=(grid=ultrafine) geom=check guess=read pop=nbo scf=qc

1cpo_II_S_nbo

0 1


