%mem=16GB
%CPU=0-71
%gpucpu=0,1,2,3=0,1,2,3
%chk=1c75_01_opt.chk
# opt polar def2tzvp uapfd int=(grid=ultrafine)

1c75_01_opt

0 1
Fe          11.10750897983396       24.00720262761707        1.95865007361376
N           11.56170769611903       25.94333726625072        2.14112885564205
N           12.38196880155189       23.85559245718006        0.42074848385989
N           10.65792390267243       22.05809246741168        1.77137022547090
N            9.89145027788779       24.13560818464647        3.54720922731576
C           11.06351171726470       26.81350458799942        3.05687208224905
C           11.59372811920014       28.14297621465149        2.84080110884910
C           12.42767592063739       28.05111236432956        1.77208605852370
C           12.39563842693657       26.66674888350321        1.35172814483852
C           13.14475361669273       24.84717044875414       -0.10977422136784
C           13.96222519928264       24.34129632094785       -1.19025420349646
C           13.67371228301989       23.01651294712785       -1.29825639997821
C           12.68444655643532       22.73322177018257       -0.28257222952243
C           11.17412062926071       21.18274335279078        0.87214844210544
C           10.58730310157534       19.86787805378278        1.04138562676298
C            9.72280301786811       19.97368062042035        2.09901450867558
C            9.79392374202150       21.34174252909674        2.54318986828814
C            9.15959716287853       23.13392520186371        4.09948667632263
C            8.41271376345311       23.61679522081797        5.24497852635963
C            8.73434718148060       24.94238508725681        5.37108005844440
C            9.65283958884101       25.24002863057791        4.30221642430149
C           10.18527789420343       26.49672061471527        4.07203050487730
H            9.88357663015191       27.29360322439930        4.73426866256626
C           13.14518930861522       26.16659063888176        0.30385728522619
H           13.78263003055214       26.85580056676098       -0.22892763951105
C           12.11910473265455       21.48725116373477       -0.09039326273997
H           12.44070456372471       20.69165311915785       -0.74470306802434
C            9.08716387507227       21.83808298480368        3.62581314706727
H            8.42997764866673       21.15549624236925        4.14263541913984
C           11.24516845343923       29.33199155441697        3.66858822113372
H           11.52074506791961       29.16862933362055        4.71090029159029
H           10.17286180139314       29.52364107891440        3.62845317974078
H           11.76490496685726       30.21799386038859        3.31214870148115
C           13.23904446601784       29.11224129883531        1.11092794361607
H           12.95685210953527       29.21058720285251        0.06263974313115
H           14.30136549926383       28.86901026264631        1.15341223045563
H           13.08910294300344       30.07291839071291        1.59734725894106
C            8.30369264142354       25.90293852461875        6.42386123333218
H            7.48869038121555       26.53404715356040        6.06533958749911
H            9.12907533450134       26.55126190100732        6.71396008413762
H            7.95835176931047       25.36304387423625        7.30331322146232
C            7.54277433130150       22.80318608629964        6.06463652078412
H            7.83636322970233       21.76525263602463        6.17347235237852
C            6.43620043307482       23.22403308615674        6.66889868840891
H            6.07000182135146       24.22967864594273        6.55820889991354
H            5.84132288705085       22.56391335007951        7.27815522368528
C            8.91417262135816       18.90202306576946        2.74294156110914
H            7.87611618283151       18.94069848320845        2.40765935893531
H            8.92084906349390       19.01068521774821        3.82660648846634
H            9.32081274580081       17.92513666686195        2.48928043854184
C           10.91342303169407       18.70927056532659        0.24015458174565
H           11.93698990745077       18.65660979796153       -0.11277968992316
C           10.06810378343932       17.73883123807140       -0.09187596181702
H            9.02946656164090       17.76198299776649        0.18866359200156
H           10.38347018014622       16.89510635038717       -0.68310754217777
C           14.21995113698549       22.00482978796980       -2.24609081867017
H           14.95041234786383       22.45474270335410       -2.91405187125853
H           13.42073218420722       21.57603782873787       -2.85128334554272
H           14.70504886167556       21.19306955521349       -1.70333742178808
C           14.90700638211621       25.17161261528765       -1.98994080743119
H           15.41304250970142       24.56782060726965       -2.73914032906161
H           15.66231659455118       25.62388489410273       -1.34650169286101
H           14.37386882243190       25.97455251908071       -2.49985358165736
C           14.32711142156747       21.80791023365838        5.95180503557772
H           14.64967038997156       22.46047267804294        6.76309499021087
H           15.17785358651687       21.19944926644252        5.64502279794171
H           13.54596663662065       21.15185230346921        6.32279078189729
N           14.57521044971350       23.52046892737694        4.14123181515538
H           15.53542902654181       23.74459879808925        4.34464849247728
C           13.80797768790222       22.60300000796535        4.81037694825862
C           13.80966959595153       24.06313406733251        3.16821855003006
H           14.14881877980345       24.81360742242846        2.48460111274962
N           12.60589527768009       23.54549693307368        3.18051303440106
C           12.58917786714627       22.63586304137684        4.19585879916229
H           11.70858767763280       22.06936223651186        4.41598573063107
C           10.16198646832479       24.57059423316452       -2.11867253801396
H           10.24684850965119       24.01093350861678       -3.04807699956787
H           11.15999895188062       24.81532591310398       -1.76760824696031
H            9.62785624953283       25.49766644884428       -2.31296249097414
C            9.42650315492323       23.74525041268660       -1.08086485006482
H            9.94427739250999       22.80856498686645       -0.88146519576856
H            8.40497658819844       23.54261281887116       -1.40271214704819
S            9.30794253898253       24.67569491364757        0.50172428849036
C            7.79531812115182       23.89082731805569        1.13820394201891
H            7.94735520598924       22.82041833875737        1.23314780951676
H            6.97138592425040       24.11072223922680        0.46429388324031
H            7.60135707523921       24.32115602592364        2.11441973047421

--Link1--
%mem=16GB
%CPU=0-71
%gpucpu=0,1,2,3=0,1,2,3
%oldchk=1c75_01_opt.chk
%chk=1c75_01_nbo.chk
# uapfd/def2TZVP int=(grid=ultrafine) geom=check guess=read pop=nbo scf=qc

1c75_01_nbo

0 1
