%mem=16GB
%CPU=0-71
%gpucpu=0,1,2,3=0,1,2,3
%chk=1cpf_II_S.chk
# polar def2tzvp apfd int=(grid=ultrafine)

1cpf_II_S 

0 1
Fe          -5.87729386547116       56.97004877081945       21.08136156412998
N           -6.60666658322624       55.99566266300347       22.71443785472544
N           -6.73417739788786       58.62760590728829       21.76937989852350
N           -5.15810072367099       57.85678757069451       19.48201851696458
N           -4.94246236840280       55.25819017842916       20.56372195102273
C           -6.47758974081387       54.67557315667679       23.01043624019665
C           -7.02982040804433       54.38703922205111       24.31402804686460
C           -7.56992424667557       55.55107997549588       24.76786140964932
C           -7.30793280149857       56.54154725440959       23.74876205549892
C           -7.62592025470759       58.77401790487575       22.78637192241700
C           -8.06745811418122       60.14091472452041       22.88338060490958
C           -7.65730398458269       60.75028406973196       21.72557204136666
C           -6.78522443986893       59.79420848453307       21.06455973139622
C           -5.29745090512041       59.18167545949705       19.19963670205708
C           -4.45401691228539       59.55645990133243       18.09367172708735
C           -3.65412619903730       58.47134614242381       17.84551219790972
C           -4.09600028624237       57.42861099116355       18.75415094153804
C           -4.25614680170964       55.07361428244007       19.40109640202828
C           -3.86303531889742       53.68835810486776       19.25655485053234
C           -4.47839443062186       53.01604220438021       20.26492706153920
C           -5.06746175026285       54.02559931555893       21.12237203327146
C           -5.86889073888355       53.72666101759861       22.20568214759404
H           -5.91629887314740       52.69746149384781       22.52742580672324
C           -7.76512246440329       57.84435129671542       23.80974894775609
H           -8.37488890885012       58.11559761474754       24.65846731959499
C           -6.14526021767040       60.05067685098118       19.86698131210227
H           -6.26657228285433       61.03788870509729       19.44675426390708
C           -3.79853835418733       56.08592395540703       18.57393863101295
H           -3.11723689970599       55.81829413215250       17.78051029790957
C           -8.26875232549533       55.83044706148774       26.05464540409664
H           -8.29108279042945       54.94337781061025       26.68287252930219
H           -9.29686535404173       56.14549942200946       25.87258636346165
H           -7.76439550775438       56.62703071567345       26.60205357996549
C           -7.00575211625674       53.04349360163275       24.95879499236837
H           -5.98160311647049       52.68155884805872       25.04959328876577
H           -7.56687085162384       52.32167433849213       24.36449051066038
H           -7.44496892842750       53.08282213533902       25.95269175982461
C           -8.89562759568038       60.70219424877537       23.98607425111474
H           -8.56401610955468       60.31595304611877       24.94882749197925
H           -9.94841131105134       60.44114917187952       23.86310633266564
H           -8.80976803856326       61.78670347913653       23.99836469730165
C           -7.88242354573397       62.10869715123366       21.28482974130436
H           -7.07246277127021       62.56646151568560       20.72895334375927
C           -8.99220384904577       62.81063801671738       21.49260435408809
H           -9.84821169670605       62.39552622352765       21.99532540291085
H           -9.09129352446852       63.82450976480390       21.14171475832968
C           -4.38130283830054       60.91242732459525       17.48211058958868
H           -4.54026595210642       61.68575128824547       18.23134032039263
H           -5.14472670129025       61.02855961925668       16.71108495675840
H           -3.40570388237656       61.06612470894452       17.02527289812246
C           -2.57735509974653       58.31154560783168       16.89554248526600
H           -1.78109163982754       57.64597017624448       17.20988494776502
C           -2.50008794071872       58.89152986260122       15.70138389514430
H           -3.28367469188724       59.52163817139375       15.31841511654573
H           -1.65525977768464       58.73255614857617       15.05172281038632
C           -3.06561056255995       53.15660525721751       18.11490831916604
H           -2.07526113893773       53.61230388139326       18.09942684745754
H           -3.55306831007368       53.37833288532526       17.16517511150321
H           -2.94335313786337       52.07925002215654       18.19590653527335
C           -4.45665892257155       51.55908783074570       20.57944622716449
H           -3.92149019237184       51.00537073593679       19.81195525533809
H           -5.47280035156340       51.16864030770065       20.63740410493002
H           -3.96972640963373       51.37669499322143       21.53773383900936
O           -4.08499999999795       57.46199999999909       22.39500000000092
H           -4.36899999999596       57.04899999999738       23.21100000003173
H           -3.35000000001012       57.94900000000304       22.27999999999497
C           -9.45095308679374       55.19529869862760       17.19329858082121
H          -10.14366897816453       55.91973196461524       16.76489472882240
H           -9.99879669079149       54.27264184161410       17.38531945712206
H           -8.66872997381473       54.99153987797042       16.46898878066786
N           -9.59618725930559       56.05468518508163       19.54046508101938
H          -10.59787692735826       55.98409705128071       19.61188514613744
C           -8.84602286621367       55.72015961323400       18.44363965332636
C           -8.74858826529781       56.49528146164922       20.49754710879736
H           -9.05837412079343       56.82559757159298       21.46737309625294
N           -7.50863754515739       56.46053473169547       20.07346464014380
C           -7.55318099185042       55.98061525472260       18.79729842963310
H           -6.65783101298905       55.85537166013518       18.22437307122824


--Link1--
%mem=16GB
%CPU=0-71
%gpucpu=0,1,2,3=0,1,2,3
%oldchk=1cpf_II_S.chk
%chk=1cpf_II_Sn.chk
# apfd/def2TZVP int=(grid=ultrafine) geom=check guess=read pop=nbo scf=qc

1cpf_II_S_nbo

0 1


