%mem=16GB
%CPU=0-71
%gpucpu=0,1,2,3=0,1,2,3
%chk=1cc5_II_S.chk
# polar def2tzvp apfd int=(grid=ultrafine)

1cc5_II_S 

0 1
Fe         -13.79416972514300       -4.67685969596742       14.41931837286649
N          -15.58479984096083       -3.76581484135308       14.37077144486499
N          -13.36419910938441       -3.99152480172748       12.61629905369677
N          -12.02860706375730       -5.59388313525702       14.57034099781551
N          -14.26497660739516       -5.37037679766378       16.26480253883499
C          -16.61842008407162       -3.88751957302371       15.24308305551188
C          -17.76579400671318       -3.13568739233150       14.78939543343317
C          -17.39577592940839       -2.54305863772928       13.62216037065061
C          -16.03455214521439       -2.96097396962081       13.36841003609985
C          -14.06687821469816       -3.07443509232675       11.89828086506633
C          -13.35477629243688       -2.70784849263635       10.70227623789872
C          -12.18796567387066       -3.42818134137031       10.71264304360103
C          -12.21364643644800       -4.21156193231999       11.93291417807464
C          -11.07148961859939       -5.61460250031207       13.60296998433421
C           -9.87168875422353       -6.25159139904187       14.08459817022791
C          -10.11752257697100       -6.59530839326850       15.38760729485782
C          -11.48692270258672       -6.19590454119930       15.65468050305402
C          -13.45755317051267       -6.07229272490442       17.10122384749912
C          -14.15621152199487       -6.42157020247585       18.31862454384636
C          -15.41565974015773       -5.92474324447829       18.19021748455381
C          -15.45835371573579       -5.25699515074354       16.90860125626449
C          -16.57328631236468       -4.59122372984375       16.43369925119558
H          -17.46048386271329       -4.59707327425273       17.04811799761898
C          -15.32270855732700       -2.60018414911048       12.24042837013454
H          -15.79220537399348       -1.90196943255132       11.56379053563119
C          -11.17247154497381       -5.01536100626219       12.35823048551974
H          -10.31809283739726       -5.10086681513628       11.70352093060017
C          -12.14339919875111       -6.41780732073014       16.84815958218703
H          -11.60237309419404       -6.92115511478453       17.63431824744741
C          -18.19012874978678       -1.66284284723673       12.71970247822782
H          -17.68935022704184       -0.70606283340833       12.57197657706590
H          -19.17617380432868       -1.47136985074166       13.13633597624866
H          -18.31518667762784       -2.13287954575159       11.74389816372628
C          -19.06295874628806       -3.06232999533861       15.51963517981476
H          -18.92366419107890       -2.62666933950014       16.50933477054323
H          -19.48911419519151       -4.05771178079418       15.64687915877446
H          -19.77882307061297       -2.45116014069911       14.97536788468104
C          -13.84786195520874       -1.77562054657813        9.65098629994865
H          -13.55223291046468       -0.74889964351550        9.87042055332129
H          -14.93302535997958       -1.80431737763692        9.58069158315538
H          -13.43016813522011       -2.05160642959076        8.68530924763834
C          -11.12133912667534       -3.46029413118977        9.73847737649032
H          -10.59534622118617       -4.40462881777406        9.65492646706474
C          -10.74329450413651       -2.44853173045583        8.96320292447839
H          -11.19262348319178       -1.47382328658078        9.02879661075517
H           -9.94477280202477       -2.55692272836199        8.24802212014411
C           -8.64488135731122       -6.49977385367719       13.27859050820134
H           -7.96604933015087       -5.64828014811474       13.33200184239828
H           -8.89429893066549       -6.66511724861716       12.23317834735202
H           -8.12212576984330       -7.37650334432642       13.65431850152180
C           -9.24932314323012       -7.25289892568327       16.33716950480511
H           -9.74492470873113       -7.87131126653361       17.07623122089654
C           -7.92477123141695       -7.14740147176828       16.37720017642896
H           -7.38012712758276       -6.51086291964712       15.70306950759865
H           -7.33922376720105       -7.67570990912451       17.11146576209231
C          -13.55271821690684       -7.19139335460106       19.44264116908732
H          -12.67736536516687       -6.67343410115964       19.83517134021126
H          -13.23770393064525       -8.17884630689554       19.10379225749073
H          -14.26667208933761       -7.31863898982168       20.25295900635227
C          -16.55643185899254       -5.98519051120417       19.14782651242827
H          -16.29301893592910       -6.57226995878204       20.02427434007967
H          -17.43064512130703       -6.44001319709552       18.68151179923381
H          -16.83277815552810       -4.98309340713188       19.47771959435126
C          -13.35609921776742       -2.56850979164724       18.11391920459352
H          -12.34538775288746       -2.21528789330173       18.30466219981351
H          -13.35651788911873       -3.65302495864240       18.16759592983029
H          -14.01707507991506       -2.18083510374341       18.88650453649407
C          -13.82653124961651       -2.10910216222766       16.74748823989965
H          -13.78809169049815       -1.02316502807809       16.66975078155477
H          -14.83510766498440       -2.45966144157195       16.53825544388137
S          -12.71605122873776       -2.77694965302961       15.44155681784344
C          -12.77450497482322       -1.36338109652942       14.29625574241965
H          -12.36680563060438       -0.48880042009795       14.79659800684574
H          -13.79626391194110       -1.18998333318528       13.97369351096097
H          -12.15694483813166       -1.62106832979709       13.44232676120968
C          -14.81780554171168       -9.23197717889023       11.34950705585973
H          -13.88438895973115       -9.16463535199474       10.79970901442311
H          -15.64455332637979       -9.19173172392372       10.64013277971390
H          -14.85384169357653      -10.19453322592305       11.85977224171100
N          -15.98539065173042       -7.94892568539238       13.15236895643360
H          -16.79936406383078       -8.54018741812499       13.18414581578911
C          -14.90602203920504       -8.11532791714367       12.32432042546517
C          -15.75784767609823       -6.85066963389884       13.90631588379021
H          -16.43603892056452       -6.47873115019610       14.64580276374885
N          -14.60196159879373       -6.31131723315330       13.60680131191709
C          -14.05972513822347       -7.08681725334106       12.62485756392046
H          -13.10357234918987       -6.85559237428327       12.20409013569817

--Link1--
%mem=16GB
%CPU=0-71
%gpucpu=0,1,2,3=0,1,2,3
%oldchk=1cc5_II_S.chk
%chk=1cc5_II_Sn.chk
# apfd/def2TZVP int=(grid=ultrafine) geom=check guess=read pop=nbo scf=qc

1cc5_II_S_nbo

0 1


