%mem=16GB
%CPU=0-71
%gpucpu=0,1,2,3=0,1,2,3
%chk=1cxy_II_S.chk
# polar def2tzvp apfd int=(grid=ultrafine)

1cxy_II_S 

0 1
Fe          29.06465457326185       25.19971599067034       13.22799688988341
N           27.65573399744008       25.80655420270659       11.92978180516145
N           30.22971111367725       26.73704599744302       12.66651725503235
N           30.45417566703975       24.64662638374306       14.56240229191361
N           27.87396333168851       23.70373773439113       13.82124456872798
C           26.40818094772966       25.28446878388059       11.78275018486827
C           25.60087213556695       26.12023186961913       10.92212381978011
C           26.39492036888161       27.16020275624705       10.55015371875862
C           27.67810435747532       26.93726601296472       11.17894793786272
C           29.97942363517331       27.62185030130891       11.66745404588504
C           31.14043456588267       28.44618275320682       11.41003491377627
C           32.09547162137763       28.04545224969316       12.29070285451184
C           31.50396425480634       26.97948668892380       13.07038096459115
C           31.67770192755778       25.19876055535776       14.75186068253142
C           32.39407512806246       24.50856502441159       15.80803253927689
C           31.56343585486341       23.50354589176824       16.23040548333885
C           30.36961367816351       23.60145559085616       15.42948790941661
C           28.17271488293028       22.74761022936210       14.73664200822118
C           27.12152209079820       21.75018064850551       14.79144452422286
C           26.16045727563464       22.16658103083181       13.90915960605348
C           26.65470334704925       23.37860543738569       13.31229753375777
C           25.95820637458651       24.11293252393784       12.36427552658011
H           24.96844387091208       23.77043451053706       12.09917698736914
C           28.77562150403350       27.75983988890400       11.00313104931467
H           28.68399990793072       28.57118175444083       10.29663414323242
C           32.17744194066710       26.29106349994043       14.06350122714868
H           33.17478232327147       26.62489723248664       14.30842812393867
C           29.29676317715238       22.73431623197427       15.54000998906834
H           29.35004467375915       21.96639413634629       16.29624222808338
C           24.18023270711371       25.83966298861700       10.56561814593051
H           23.56153350593838       25.77994178002446       11.46174580113563
H           24.09718946905532       24.88979350399405       10.03615703615690
H           23.78021107872776       26.62229518538969        9.92545885363935
C           26.07772068559289       28.32374022689084        9.67397637904003
H           26.71018854853910       28.31777627271873        8.78557645511161
H           26.25052257267927       29.26060060468241       10.20387585438687
H           25.03886201591059       28.29693899689133        9.35333699188483
C           24.87281900410660       21.50146552248354       13.55985927836324
H           24.86464274713144       21.20102049748287       12.51123293393271
H           24.03302093916873       22.17884737400654       13.72040096304760
H           24.72381493002924       20.61325001368488       14.16881573414305
C           27.09407810816666       20.54773612039966       15.59911085311495
H           26.12510077080746       20.28760272475138       16.01306326904594
C           28.12651599943118       19.74302717155869       15.82393003942797
H           29.09565206053328       19.92541926509734       15.39126015152262
H           28.03134374104988       18.85811440769879       16.43161997088521
C           31.83464898105064       22.44865315495907       17.24592520567263
H           31.41281309443447       21.49447233575097       16.93460091638708
H           31.39327116698017       22.71241290822798       18.20861921490275
H           32.90774189596357       22.32781599912448       17.38198500351158
C           33.72633033621069       24.84461796612109       16.25630242553788
H           34.38675224203531       25.25156453576025       15.49864857632007
C           34.18575363913535       24.70476857969004       17.49619206268797
H           33.56492836757636       24.35319891806411       18.30146890849288
H           35.19936823417702       24.96461713904460       17.75391058879470
C           33.48737174974480       28.54824289805867       12.47124254478269
H           34.21004776652126       27.74960353082298       12.29993927342474
H           33.63225456318075       28.92206399091086       13.48528681386361
H           33.70030332161897       29.35650319536714       11.77573135585719
C           31.20468737299842       29.50602658957049       10.36387149999994
H           32.19185941694352       29.96108891963140       10.33285677926915
H           30.47288706153796       30.28905417903907       10.56556439919851
H           30.98808415232299       29.08704661577517        9.38101624427356
C           28.16233397524129       28.86096103683176       17.36861686180943
H           29.21786028812475       29.08239341130284       17.49185067591388
H           27.77211479627491       28.48285210222935       18.31359003808445
H           27.63703079859082       29.78554145368742       17.12852505983993
N           26.76011744643241       27.37555237423495       15.91853893624618
H           25.87802947162346       27.63885334943991       16.32616088669517
C           27.98919409370583       27.85827298681100       16.28706175539614
C           26.95360090783241       26.48781708048451       14.91711425653616
H           26.16445007366072       25.95213182503170       14.43130424231973
N           28.22649670032578       26.38010552675642       14.62901106494260
C           28.88367678101481       27.22589915080231       15.47243992862535
H           29.94881189077717       27.32187996149305       15.43789067758694
C           32.55672967305200       22.48930192114041        9.78750250201813
H           33.44304900431148       22.98270426314280       10.17414923777626
H           32.48378132706908       22.68857538313352        8.71823767344152
H           32.66763197759863       21.41372353899426        9.92691482660857
N           30.08732718227729       22.57312349135194       10.19566160371387
H           29.84452379079744       21.90351618914367        9.48419693927058
C           31.35591262579864       22.99330927375769       10.50112605268760
C           29.23307397491598       23.21829800482038       11.02177119826528
H           28.17091543266903       23.08647118876333       11.00936558257263
N           29.88183706774957       24.01914024287198       11.83058418754800
C           31.20317232985990       23.89025865303442       11.51908369452636
H           31.95063761650128       24.44814756661059       12.04388078150141


--Link1--
%mem=16GB
%CPU=0-71
%gpucpu=0,1,2,3=0,1,2,3
%oldchk=1cxy_II_S.chk
%chk=1cxy_II_Sn.chk
# apfd/def2TZVP int=(grid=ultrafine) geom=check guess=read pop=nbo scf=qc

1cxy_II_S_nbo

0 1


