%mem=16GB
%CPU=0-71
%gpucpu=0,1,2,3=0,1,2,3
%chk=1csu_II_S.chk
# polar def2tzvp apfd int=(grid=ultrafine)

1csu_II_S 

0 1
Fe           2.84370814614912       20.87745234804340       13.00583338388917
N            4.25621873679000       19.85199263012960       12.22680260049672
N            3.42071862903040       20.34539204989908       14.89915418022520
N            1.40919124215433       22.04246959037463       14.02648110166732
N            2.05219275151227       21.50703008265838       11.31861181309771
C            4.49904686868808       19.80818138837774       10.89344783908098
C            5.50576212278933       18.80499812657797       10.61541971972354
C            5.81767858621930       18.23032892692986       11.80955147878219
C            5.03458928802732       18.91748910966843       12.81419235492424
C            4.34097500184393       19.36615115518250       15.13528292381637
C            4.58900627677968       19.23264097788854       16.55431882294576
C            3.74465722885468       20.10140288822970       17.17189126872033
C            3.03326042894144       20.79178293794599       16.11942042231923
C            1.32658531016020       22.34655763844587       15.34592989793334
C            0.24403378323719       23.27514226927922       15.60170717398549
C           -0.30338780596892       23.55978449336353       14.38087185614034
C            0.44335687228609       22.79061286170262       13.41673824493919
C            0.99355923278869       22.31207102027455       11.07596511859304
C            0.92863832600659       22.64815047166777        9.66696011853767
C            2.01555103608362       22.04629111678921        9.08413391006892
C            2.71878271349305       21.36355090873155       10.13789295502219
C            3.83336741878786       20.55737931188454        9.93768715027836
H            4.18153116734124       20.46010904742985        8.91958822602503
C            5.06835683184505       18.67773513124513       14.17600884896186
H            5.73569968638055       17.90486495462509       14.52604843484051
C            2.07567723773726       21.75951794841705       16.34506828309054
H            1.87961914421903       22.04803521460243       17.36492077467368
C            0.17045349349026       22.83214100139772       12.05834309285151
H           -0.66657365113607       23.43519892320742       11.74079102275714
C            6.02667386019818       18.49457479995334        9.25522948417842
H            6.44690898802234       19.38894748537484        8.79609813329729
H            5.22618467722045       18.12947813970869        8.61224627999432
H            6.80214491525363       17.73454686086968        9.30254683698223
C            6.78538870937175       17.13879239931000       12.10753896736860
H            6.28559876464530       16.30670711957087       12.60078291919504
H            7.57269261098494       17.49925900832027       12.76965381098273
H            7.24491664646567       16.77089845537502       11.19398897535098
C            2.49166246541696       22.16373747977645        7.67823962955488
H            2.18956935081749       21.29855658902639        7.08578337757874
H            3.57822591879450       22.22932237133521        7.65006413337748
H            2.07547446177843       23.05711377430043        7.21651579621562
C           -0.08344876203070       23.48595478188036        9.06668728201231
H           -0.49505863086863       24.25425294319562        9.70969128632056
C           -0.53466387823826       23.38257522158501        7.82086618325112
H           -0.20266870174644       22.60536851894457        7.15513006919862
H           -1.27514230240648       24.06075754006359        7.43203127811139
C           -1.41400793024178       24.49993077363245       14.06359589684151
H           -2.34162054839271       23.95288859222548       13.88533613175876
H           -1.19060911352448       25.08293743839053       13.17112951938577
H           -1.57276589101254       25.18481668161390       14.89377207807478
C           -0.12291064187450       23.77023593246635       16.91067434977837
H            0.69501186854865       23.92869397731091       17.60442428498371
C           -1.36540477812389       24.01582881096071       17.31128786991981
H           -2.21689104302382       23.83076965700989       16.67981016469718
H           -1.57754200681392       24.38336260869532       18.30129842051950
C            3.57290825031566       20.38018960166578       18.62509878305323
H            2.58282197889180       20.07390880955107       18.96100249459954
H            3.68239899036285       21.44454173384986       18.82619907202490
H            4.31295522636406       19.84378477885906       19.21104656959085
C            5.55658273248462       18.27157686366402       17.15684717697783
H            5.29284981619932       17.24547739956373       16.89983991835513
H            5.56458283482082       18.35987212420134       18.24083347679055
H            6.56511466499493       18.46304173441620       16.78947807857001
C            5.03674807065774       25.98369157850414       12.81492540053160
H            5.26888774169938       26.46043854420952       13.76704887976410
H            4.13499707446930       26.43319852747291       12.41124458962697
H            5.86056776946247       26.17506591327000       12.12735068713359
N            5.78423009537069       23.69353781631993       13.50705323034401
H            6.70165247243448       23.97232566588280       13.81388683768598
C            4.82423087996287       24.52544125887354       12.99362245611328
C            5.26954156405718       22.44331088239123       13.53673386759591
H            5.79592629895707       21.58271858368042       13.89395284145741
N            4.04392835436124       22.43422365625977       13.07219736509840
C            3.75351940916297       23.72085572631735       12.72831239496965
H            2.79996678955754       23.98162589114039       12.31869890478621
C            1.03245664634464       17.84548142517585       15.45394883945234
H            1.04025771449119       16.85194936605817       15.01139301777699
H            0.43273690927094       17.82222740993076       16.36184228198123
H            2.05138277290325       18.11261519287740       15.71790904711006
C            0.45803015699558       18.85508429465529       14.47867845886601
H            0.45799104083368       19.85738241585493       14.90299108580885
H           -0.55282542043665       18.57554748671514       14.18429540630365
S            1.46775272161414       18.89918691896213       12.94206603266665
C            0.12836013835973       19.19064906168250       11.74488259413263
H            0.59531339670910       19.29411374418681       10.77123750059998
H           -0.40026860667585       20.10443347142078       11.99677465686514
H           -0.54157359941033       18.33473963724370       11.74712187575242

--Link1--
%mem=16GB
%CPU=0-71
%gpucpu=0,1,2,3=0,1,2,3
%oldchk=1csu_II_S.chk
%chk=1csu_II_Sn.chk
# apfd/def2TZVP int=(grid=ultrafine) geom=check guess=read pop=nbo scf=qc

1csu_II_S_nbo

0 1


