%mem=16GB
%CPU=0-71
%gpucpu=0,1,2,3=0,1,2,3
%chk=1a6k_01_opt.chk
# opt polar def2tzvp uapfd int=(grid=ultrafine)

1a6k_01_opt

0 1
Fe          14.70292083600752       27.94860415366027        4.77497568103648
N           14.89702116396150       29.27128900689024        6.25179089915713
N           13.80750240984733       26.66884368106428        6.01410999398755
N           14.57456069635483       26.59987784250321        3.28277029745446
N           15.65427967407572       29.21212476049548        3.52820810735053
C           15.48392757020002       30.49499653219841        6.19072410291648
C           15.42564650201739       31.15724277627444        7.47642934906034
C           14.78330264855678       30.30252248383918        8.31517323021897
C           14.46041085658814       29.12974529545001        7.53034553779947
C           13.50388689081885       26.88151591030427        7.32130526663284
C           12.84724656450003       25.73162759988342        7.89117185614343
C           12.76466522298139       24.80084226165516        6.89088401101656
C           13.36414407986332       25.41912642443684        5.72217021698737
C           14.02089082077681       25.35666049190729        3.35545690657265
C           14.08764324236136       24.69094865924738        2.08120312108292
C           14.69380181517022       25.56799321257710        1.21969576011025
C           14.97669815284908       26.75929061186265        1.99463692148595
C           15.90979364292347       29.02025672239882        2.20499021974871
C           16.56341067554924       30.17797939826226        1.63843673980369
C           16.69319193705439       31.07805612758277        2.65093123024452
C           16.11632380209631       30.45827693671047        3.82150991800228
C           16.05196659027580       31.06111911405924        5.06422855916283
H           16.47316197947410       32.05032125345838        5.16013704111367
C           13.80246658322978       28.02783902990993        8.03622796854433
H           13.51719445275339       28.05484856688870        9.07675866772369
C           13.47061797566507       24.79428473987651        4.49484687745370
H           13.09274351150021       23.78653587981753        4.41413951819244
C           15.60599651921980       27.88024841973271        1.48524454603023
H           15.88154095895025       27.86706322444003        0.44206191579729
C           14.45023466823148       30.46656108750029        9.75829412227493
H           14.79155880609309       31.43053856166016       10.12770503191821
H           14.92525012960951       29.68442682913359       10.35055833083706
H           13.37300962655420       30.40112674676521        9.91353316838325
C           15.98595796779076       32.51084485079275        7.75171151408964
H           15.51216553574286       33.26098890826042        7.11752647116951
H           17.05767433143303       32.52899011246255        7.55292251087185
H           15.82627050265240       32.79123973799596        8.78986503327866
C           12.31938629617168       25.64712813770978        9.28058140889317
H           11.88892972674207       26.59918734560453        9.58753197174089
H           13.11463625078139       25.39374732259198        9.98339552605427
H           11.54968410103564       24.88034115029207        9.34184823135792
C           12.18423397799615       23.47660026578605        6.91846042737849
H           11.71725900684236       23.14908162822948        5.99644407306095
C           12.19000791975767       22.65350281381937        7.96206916569472
H           12.68063836418425       22.90419452970267        8.88611525409500
H           11.72479642901481       21.68268961361907        7.91648410034268
C           13.52728179412810       23.34324766181131        1.78713251475797
H           12.58389694790604       23.19505573925925        2.31066649003870
H           14.21496687194680       22.55728893368883        2.10398668054369
H           13.35263826264558       23.23681356406425        0.71844828787984
C           14.99378748777564       25.40831265040010       -0.18601261327322
H           14.92598206205313       26.30950837385879       -0.78455316727592
C           15.34580500054673       24.26974013981243       -0.77435046775638
H           15.47553033101733       23.35542377656325       -0.22197119487587
H           15.54292083111610       24.21965884892493       -1.83240585593604
C           16.98404214422879       30.29315080757615        0.21341814618812
H           16.12303812157339       30.19865130706089       -0.44879471155525
H           17.69412218203169       29.50632431136918       -0.04251343608169
H           17.45632588515847       31.25430986432919        0.02562708992157
C           17.29660156431677       32.44085507158491        2.63233345693674
H           16.55932785215608       33.19222312965903        2.91685633065234
H           17.66884782790038       32.68565870729261        1.64062670580401
H           18.12782783030946       32.50158770138032        3.33522040127579
O           16.76524663017087       27.04854758853753        5.21690156981864
H           16.73545338431687       26.26231142367806        4.66092748638545
H           17.32090032194077       27.69350413650498        4.76585794482406
C            9.42869749140940       28.73826402831398        3.15227639685702
H            9.26634346740415       29.15416916244850        2.15794599590383
H            8.73966162874675       29.22534243118244        3.84214520126765
H            9.20298677313029       27.67689269122002        3.12633419391731
N           11.39820413772080       30.17933040978248        3.71455841214627
H           10.93555695611026       31.05612613708855        3.53912181260499
C           10.83546436378233       28.93676784351085        3.58366317592218
C           12.67757312729651       30.00949567901179        4.11791188975786
H           13.36143784361794       30.81235549336982        4.30142457906686
N           12.95873620362870       28.73587336893332        4.25008775112110
C           11.82261575614593       28.05615044130395        3.92180441860193
H           11.79152750151121       26.98678781714840        3.94971371229538

--Link1--
%mem=16GB
%CPU=0-71
%gpucpu=0,1,2,3=0,1,2,3
%oldchk=1a6k_01_opt.chk
%chk=1a6k_01_nbo.chk
# uapfd/def2TZVP int=(grid=ultrafine) geom=check guess=read pop=nbo scf=qc

1a6k_01_nbo

0 1
