%mem=16GB
%CPU=0-71
%gpucpu=0,1,2,3=0,1,2,3
%chk=1cgo_II_S.chk
# polar def2tzvp apfd int=(grid=ultrafine)

1cgo_II_S 

0 1
Fe          10.64244609370107       33.04406021573714       38.50169743022042
N            9.97080975203803       34.25239015893398       39.93617882729615
N            9.63698296400469       34.16621208229191       37.14757801949708
N           10.83961767964359       31.62953418231186       37.07376165558547
N           11.14438881461611       31.68285060820557       39.87967331487945
C           10.19975857742740       34.11540971238593       41.27463305317426
C            9.57279527807765       35.18594211969864       42.01644392960665
C            9.00283409647549       36.00580489444508       41.09312230076014
C            9.26114619807459       35.40728438467200       39.80262334322667
C            9.04871127773127       35.37760595980954       37.36462242771407
C            8.62201880801909       35.97931920424912       36.12231454582739
C            8.99076102412390       35.11828058255681       35.13646176655707
C            9.61313759278588       33.99295436710342       35.79580000965674
C           10.64534274430690       31.77442200767718       35.73509549184032
C           11.10759223795485       30.60593133871173       35.01266759808794
C           11.57213391868042       29.73587770502866       35.96195022761942
C           11.39646836125424       30.39224358822135       37.23224174962142
C           11.65411885603114       30.43807088833009       39.67103646298040
C           12.19040551516259       29.88493417191607       40.89825210681995
C           12.00397373012629       30.84561151682232       41.85784058059011
C           11.33199479223918       31.93889070041635       41.20828526313343
C           10.89595045050694       33.07841436697886       41.86412160543001
H           11.05310377429110       33.13010292677598       42.93109724677723
C            8.85247659796789       35.95706407216426       38.60323289985128
H            8.33349861261312       36.90271020739414       38.63718990144292
C           10.08227518353318       32.87942827210154       35.12662073108039
H            9.98110078012869       32.86466547911629       34.05219854165976
C           11.72433276316523       29.80937849823000       38.44284232676520
H           12.11685842668778       28.80444087222585       38.41760909914956
C            9.60031098732274       35.30788935490926       43.50138837408874
H           10.62551278368117       35.39967284025149       43.86201519763695
H            9.15683636810723       34.42655246366404       43.96452550370402
H            9.04379951454830       36.18285000963459       43.82771050882786
C            8.22210025401191       37.25854938757172       41.29573002238638
H            7.21403482360819       37.15039101203816       40.89541505300939
H            8.70088138186831       38.09439887902936       40.78498099875752
H            8.14695390037310       37.50103540636643       42.35285540750194
C           12.43933458937120       30.83179997023595       43.28172548012972
H           11.61833176263060       30.53683365523866       43.93718364641268
H           12.77943267093361       31.81902590003880       43.59170867817136
H           13.25470554826916       30.12355682378150       43.41485870412837
C           12.81285457726360       28.58457688264378       41.01568345598230
H           13.33979750371030       28.23570968524247       40.13521661915228
C           12.77645618258792       27.80686617456659       42.09278718248766
H           12.22808065327155       28.07787328492678       42.97783778160412
H           13.27407669792625       26.85151873051620       42.11389762577686
C           12.21474829415491       28.40733026949091       35.76741804742807
H           11.50919752647371       27.60062530806988       35.97218123245049
H           13.06549469111711       28.28948412108960       36.43713394679508
H           12.56295790889861       28.30769932697184       34.74151990634861
C           11.06868167805718       30.45791613491744       33.57364939778493
H           11.22154326903931       31.36801543303142       33.00476165085337
C           10.85856199792106       29.31907483043646       32.92222266244087
H           10.65143771380042       28.39614946610485       33.43504059934769
H           10.85721731912528       29.27772333938984       31.84556665873493
C            8.79757277927295       35.22839237431598       33.66313090419440
H            8.16753999806725       34.41679918471753       33.29833324748068
H            9.75520240552765       35.17294744344157       33.14455664884238
H            8.32283271721873       36.17199447430029       33.40533694450883
C            7.92472062940755       37.29202143847429       36.01915019004792
H            6.96969516691185       37.25891159872362       36.54443322283040
H            7.73423967526946       37.54772827290915       34.97958164317320
H            8.52845044250447       38.08373142181022       36.46359417879281
C           15.37248349173909       35.17248440496135       36.43764607478758
H           16.28945783952154       34.59949321301929       36.57359051527884
H           15.59460914227277       36.22189298202779       36.63029709398783
H           15.04706015525784       35.06889967280182       35.40743680656566
N           14.44077565277881       34.69207653270760       38.71109109638809
H           15.24612993785824       35.01720724754865       39.22030620497962
C           14.30632739770783       34.68368343498876       37.34788201824097
C           13.30294691153415       34.18570293040392       39.23949662395641
H           13.12594140389545       34.07089071109563       40.29003161834266
N           12.45335688330810       33.85550472553145       38.29282933980577
C           13.06725948095637       34.16190078212242       37.10941473444589
H           12.57602238944501       33.98578337960105       36.17365409453183


--Link1--
%mem=16GB
%CPU=0-71
%gpucpu=0,1,2,3=0,1,2,3
%oldchk=1cgo_II_S.chk
%chk=1cgo_II_Sn.chk
# apfd/def2TZVP int=(grid=ultrafine) geom=check guess=read pop=nbo scf=qc

1cgo_II_S_nbo

0 1


