%mem=16GB
%CPU=0-71
%gpucpu=0,1,2,3=0,1,2,3
%chk=1cpt_05_opt.chk
# opt uapfd/gen scf=maxcycle=999

1cpt_05_opt

0 5
Fe          36.65529049715568       13.19697150244025       86.94855389701928
N           34.69051804317552       13.22226015042134       87.43000977173095
N           37.09345879983395       12.30887468917104       88.70510864019975
N           38.65479283194171       13.14740758006177       86.43715430933916
N           36.23625183133849       14.05062357169698       85.17886850420025
C           33.65865024016263       13.62051036966765       86.63253945141902
C           32.40485961402677       13.49419259750272       87.34699814444218
C           32.70808227675288       13.03638580632692       88.59139147381758
C           34.14576609495729       12.86029707887441       88.63129222728087
C           36.22033160466069       12.07581291085178       89.73942939202537
C           36.88324927703427       11.45255382321301       90.82035912414747
C           38.21605086544561       11.28448631746750       90.42647628299473
C           38.31350365570515       11.85053662320798       89.11460597703649
C           39.65445941070251       12.54264037681504       87.14315422777638
C           40.90669570942328       12.68760570848935       86.44736761333833
C           40.64150334107455       13.40386257819702       85.30427059000006
C           39.21950320486649       13.67695607736507       85.31348769088446
C           37.13530594626647       14.45759246057579       84.22824748225173
C           36.45018853993849       15.01439082373351       83.10827689504953
C           35.10093314116533       14.92241538702554       83.38768516003543
C           34.99407504805369       14.32715507592465       84.67736678991562
C           33.78620798058816       14.11334073276725       85.35296196297573
H           32.88453706237459       14.40056846703822       84.83544552114897
C           34.84005482449203       12.34827972058402       89.69977544568680
H           34.27223493722267       12.08359807768801       90.57787764971529
C           39.49525062000232       11.92309764215742       88.36911537529471
H           40.37561043772314       11.48818618840478       88.81480390873287
C           38.52361457740736       14.30114186283451       84.29996442299390
H           39.08886185825958       14.64805525681243       83.44919273402014
C           31.80195226158285       12.74190017264652       89.73572646990857
H           31.85765581040359       11.68727271908838       90.00706692447466
H           30.77115306401686       12.97794549718551       89.48466506794998
H           32.08754963946993       13.33035984419477       90.60739192074362
C           31.07766526191248       13.83352338424290       86.76320860629127
H           30.90082637495080       13.25530068151221       85.85639909777089
H           31.03529330700988       14.89118999261559       86.50245352557181
H           30.27796498719162       13.62129855497570       87.46808853452156
C           36.27569354080470       11.12335733277995       92.13895375795290
H           35.84522900792761       10.11973974252060       92.13549181521684
H           35.48431983778671       11.82881189651109       92.38507478374316
H           37.03311480556295       11.16783665758068       92.91885013502025
C           39.30785229234865       10.70010898170526       91.15668444759358
H           40.29487692014504       11.05550418107788       90.88460656486474
C           39.21340140769302        9.76713824565428       92.10539088523124
H           38.27621338409960        9.32466279756744       92.39077456636599
H           40.08948131668807        9.39351735563407       92.60828755903572
C           42.22251281898420       12.20795313427991       86.94919203635403
H           42.37392193714288       11.15700929043667       86.69768816370359
H           42.28148030890328       12.30600970726312       88.03191106198842
H           43.02719660015703       12.78793962283802       86.50207070703165
C           41.54835457793646       13.84569724491695       84.26949485991243
H           41.28931970078248       14.78461385891658       83.79400168212473
C           42.63479721266545       13.19568560230654       83.86371967806494
H           42.91122660454567       12.23534350030674       84.26172904314804
H           43.27097377450193       13.59357258098926       83.09093981780565
C           37.11452845468995       15.56145815584213       81.89225483905230
H           37.66852685988923       14.77825897176870       81.37376433962794
H           37.81721694163900       16.35165358755512       82.15830845064201
H           36.38160332184997       15.97408499545684       81.20395465105472
C           33.94429946094262       15.34631469517256       82.54946890476484
H           33.28715342899191       14.50016128423049       82.34854543394526
H           34.28277253827840       15.74871547982870       81.59830138826680
H           33.36011778232032       16.11399936375733       83.05834939491274
O           37.19184809138241       15.48496900872882       87.73896542608136
H           36.97777694843366       16.01374627748895       86.96370716710784
H           38.15209330032104       15.44067017758387       87.79201741473092
C           35.26171093920349        9.84620561254386       86.92688326452155
H           35.38802637737206        8.77069599692392       87.00633391212799
H           34.28507306624656       10.07832877277009       86.51510024250335
H           35.38106860778792       10.32959203016035       87.89057077006207
S           36.48996336305513       10.51082242995059       85.74979612777439
H           37.56335149067619       10.23023112314627       86.48903589498040

C N H S O 0
6-31G*
****
Fe 0
TZVP
****


