%mem=16GB
%CPU=0-71
%gpucpu=0,1,2,3=0,1,2,3
%chk=1a2f_12_opt.chk
# opt uapfd/gen scf=maxcycle=999

1a2f_12_opt

1 2
Fe          -5.60626752450363       57.01407906720009      111.71890079293614
N           -6.40162915634948       56.07229220370444      113.29075685892272
N           -6.52656545657747       58.71918102866514      112.27299298654819
N           -4.77111528150818       57.98398012488487      110.16629707634803
N           -4.65864820440114       55.34290492411978      111.19338794111799
C           -6.28709005734043       54.75246827752889      113.59481794919809
C           -7.01938489755938       54.44186566892307      114.80208597406579
C           -7.57246686518527       55.61193728083522      115.22767264853613
C           -7.18455708566672       56.61846573458268      114.26531491333391
C           -7.30352031429588       58.90617642281445      113.37893063245747
C           -7.82274269772304       60.24649824353243      113.41600565984930
C           -7.36162485320432       60.87062275412250      112.28263760027741
C           -6.54149451674500       59.89832485556781      111.59220307777585
C           -5.02732076222852       59.26281426151811      109.76512426463198
C           -4.27802985430913       59.58242163477264      108.57832576360582
C           -3.55284021744174       58.45922010827454      108.26566242185015
C           -3.88222993065947       57.47402690879657      109.27228783463349
C           -3.77634530127450       55.19123155232823      110.16711399709163
C           -3.30774342545752       53.82516772773786      110.09735020723920
C           -3.94150327253861       53.15140466221852      111.09795689091078
C           -4.77545010111541       54.11822201177778      111.77520500061158
C           -5.54534485724400       53.82841755077958      112.88402157352316
H           -5.53994315125648       52.81165237246611      113.24300596680500
C           -7.59671511846699       57.93424499092138      114.32205122370812
H           -8.22780955790149       58.21995645127308      115.14860025489224
C           -5.86536326708879       60.15123206750113      110.41463422026870
H           -5.98781479871102       61.12694741339059      109.97245004637183
C           -3.40080106908436       56.17703952303128      109.27542854720157
H           -2.70501827351002       55.90286124458376      108.49840832708692
C           -8.41510297120354       55.87656784093302      116.42428035373267
H           -8.55505355519142       54.96944847765921      117.00459964265198
H           -9.39571837147304       56.25044965721985      116.13059385372379
H           -7.94617331376973       56.62311514681112      117.06427810791830
C           -7.09572762524573       53.08729520943012      115.40977373931926
H           -6.10461666899861       52.74799823961398      115.70928010875868
H           -7.49781238374781       52.36913491711343      114.69614267673887
H           -7.73469576975148       53.09304028008345      116.28797300000758
C           -8.64184392543578       60.81669494680460      114.51675919542629
H           -8.30783140626531       60.44184476797069      115.48225947180021
H           -9.69316202394056       60.55212341226859      114.39735602262363
H           -8.56084775352652       61.90111667612039      114.51645203290488
C           -7.58271713330715       62.22962021114645      111.83732578096534
H           -6.75817374916993       62.69100451380122      111.30873385566397
C           -8.70182503685191       62.92136422893094      112.02425454943058
H           -8.79678341475376       63.93550286445678      111.67693855326188
H           -9.56856716925783       62.49590147268260      112.49872724786859
C           -4.26554166503934       60.90539112098406      107.90315520822996
H           -4.29062800139376       61.71336371098048      108.63179035471327
H           -5.13161618130315       61.01441332778838      107.24947482249300
H           -3.36600833110636       61.00731896776890      107.30077076408340
C           -2.61660735337757       58.24647974370733      107.18199552412170
H           -1.77170912697533       57.60915103139584      107.41136841410098
C           -2.73164940412527       58.76200164684058      105.96295900288359
H           -3.57638157736814       59.36047434704410      105.66993524814157
H           -1.99222705636055       58.57407564857768      105.20392083849006
C           -2.32686182691576       53.32578364265518      109.09789002750804
H           -1.38959661288551       53.87574794871583      109.17496475125979
H           -2.71101122075492       53.45182064445327      108.08588686555360
H           -2.11824939733624       52.27184161701116      109.25596492200800
C           -3.83576487597993       51.71975210452888      111.48418014270069
H           -3.17947788633521       51.18391423195819      110.80475442457856
H           -4.81545032122668       51.24390944719859      111.46303428393340
H           -3.43521643769650       51.62579958035928      112.49311274307547
O           -3.83921963670206       57.61581384027166      112.97520277880000
H           -4.04317548774364       58.21424852567057      113.70131164477975
H           -3.10714497690874       57.99979078282139      112.48144753539172
C           -8.94537323450178       55.32627356501193      107.58057715400085
H           -9.59911361538244       56.06477388622406      107.11826212911238
H           -9.51862383526133       54.41180903378856      107.72793555896249
H           -8.12356730777323       55.11644025379486      106.90358205520563
N           -9.23047641910863       56.18280376990771      109.91483194752102
H          -10.23776430284498       56.14070703136124      109.91222909113695
C           -8.41830446224932       55.82807208190074      108.87139330743315
C           -8.45026561559786       56.59286660043484      110.93076382241237
H           -8.81941815141692       56.92931128947092      111.87837711563803
N           -7.18093076312449       56.52035544430647      110.59604217345857
C           -7.14489319669658       56.04576004217672      109.31650136126041
H           -6.21769957728961       55.89285516000925      108.80402514240281

C N O H 0
6-31G*
****
Fe 0
TZVP
****


