%mem=16GB
%CPU=0-71
%gpucpu=0,1,2,3=0,1,2,3
%chk=1ltw_16_opt.chk
# opt apfd/gen scf=maxcycle=999

1ltw_16_opt

1 6
Fe          35.39687383630110        4.37077255367293       10.37261111418384
N           37.24810042479056        3.91249658073450        9.71073359171435
N           35.01729424834477        5.39512717521732        8.70579346896448
N           33.53039104476186        4.64088993167441       11.02559527832567
N           35.66150600581377        2.87596156141609       11.88639572176099
C           38.19087532793100        3.16700127451144       10.33599987012461
C           39.42675564636243        3.20501933311998        9.61662420818079
C           39.20387543604360        3.99450591188287        8.50202096505279
C           37.84079304486524        4.41871217963851        8.58238625226294
C           35.89320304319897        5.66399618140718        7.70159103724310
C           35.30249714363067        6.56925441652364        6.74257704988829
C           34.06463876457187        6.90000632003619        7.22988861812143
C           33.90720062414370        6.16114980843860        8.48060511387765
C           32.63155978584868        5.54230643830860       10.51611865941021
C           31.45560673577214        5.58638122665804       11.28995312120441
C           31.63686175236090        4.65239105173812       12.32671845453306
C           32.93826787446689        4.06934558404919       12.10970812878045
C           34.77485978194019        2.56915445731665       12.84711274950064
C           35.37075699454893        1.64722403894449       13.80862379239788
C           36.65739590639433        1.46172176153860       13.41563849606427
C           36.84008021620123        2.25927063270179       12.20839985915196
C           38.00716925362087        2.39721168250228       11.51282821162758
H           38.87816684935061        1.87652088250928       11.87991787022503
C           37.20158612178560        5.21211042456578        7.63123215921592
H           37.79556544065714        5.53643631062157        6.79118346724582
C           32.82999870170222        6.26978497057668        9.31476454798144
H           32.04721414689861        6.95798520429485        9.03798886227485
C           33.49975533333043        3.10147609378823       12.94870158753732
H           32.90208486020274        2.77496904589985       13.78490083652572
C           40.14782878756181        4.36531066101074        7.41746119104625
H           41.11623630542234        3.89854209574176        7.57032211789290
H           40.28905521442528        5.44555602887058        7.38972818661443
H           39.76420580694528        4.05122730882822        6.44699461406842
C           40.67768653389474        2.52106879921147       10.03481637643017
H           40.52818723770346        1.44336910657114       10.10246406412953
H           40.99890145045340        2.87906597942558       11.01259137028272
H           41.47645254897613        2.71080445068512        9.32413579221432
C           35.93984858274317        6.98813998032831        5.46893576511461
H           36.51442854274698        6.17164944370607        5.03657237077237
H           36.61600935015044        7.82735944382485        5.63463666875903
H           35.17948951979669        7.29773314094208        4.75566704873028
C           33.05807643653047        7.76756321361390        6.66677216987639
H           32.03245056483943        7.50120850576841        6.88872006718273
C           33.30238605370985        8.84859313482437        5.92890723301981
H           34.30046530321585        9.19507552053435        5.72875569761944
H           32.49935252350528        9.44688985246613        5.53487181336766
C           30.24413661578760        6.39701371818079       11.00501050702125
H           30.13277245286721        6.57670966553524        9.93833156832379
H           30.30317262742578        7.36588056852441       11.50298261557638
H           29.35570004451921        5.88166519353885       11.36300619137002
C           30.74875794643618        4.30800841613462       13.39382959238305
H           30.88217761470362        3.32096890245551       13.81878066374470
C           29.80100673714742        5.09816928398831       13.91523791499257
H           29.65900947969491        6.11622497221705       13.60224151710884
H           29.16873233077466        4.74892570875703       14.71285376895026
C           34.64712338679868        1.09331365702587       14.98149319315275
H           33.73154602418485        0.59320598648032       14.66751505584234
H           34.37793559499369        1.89308289643950       15.67104947899220
H           35.26621742634917        0.37775055433884       15.51461218283771
C           37.73195466944681        0.64749519465910       14.03820852112061
H           38.14616882411471       -0.05934514058437       13.32013851701802
H           37.35164786929141        0.09181775029815       14.89021320549696
H           38.53997497592300        1.29210426564794       14.38265430718573
C           32.27035595792877        0.62728596310747        7.17106042119905
H           31.85961241480115       -0.25927228229712        7.65285322696127
H           32.65600580628178        0.33392658202542        6.19540713115321
H           31.47066675487857        1.34682731508017        7.02722556430008
N           34.48374676242943        0.54535925962592        8.33696559262751
H           34.70290325758602       -0.39961120117829        8.06234439087636
C           33.34294053107312        1.22504388954182        8.00058263404596
C           35.24535695493622        1.36049530422082        9.08990576821307
H           36.19827228750258        1.09014964987948        9.49658848760084
N           34.65890601058282        2.52088481525797        9.25518150652667
C           33.47405822565904        2.45445799241021        8.58340955946592
H           32.80079660931724        3.28606130492828        8.56266906359138
O           35.93024728392827        6.00210540517863       10.97225294299634
O           36.25810141418886        5.48495470792853       12.10642926881006

C N O H 0
6-31G*
****
Fe 0
TZVP
****


