%mem=16GB
%CPU=0-71
%gpucpu=0,1,2,3=0,1,2,3
%chk=1bek_II_S.chk
# polar def2tzvp apfd int=(grid=ultrafine)

1bek_II_S 

0 1
Fe          -5.89229655030203       57.06554043402684       21.45586095169756
N           -6.45584834167805       56.15339935728678       23.17793147062507
N           -6.76868349745992       58.73547745627473       22.06458197272289
N           -5.05626408946465       58.01387683944713       19.93442068211115
N           -4.78643118290480       55.40089688222043       21.04200891454165
C           -6.31890335886706       54.83749842189250       23.49952295931309
C           -6.87302766937291       54.57353107186622       24.80778179379332
C           -7.51568151782320       55.71276760211138       25.18479423049015
C           -7.25986354935155       56.68451391794228       24.14437417491127
C           -7.49050692417563       58.94140231159523       23.19774014470848
C           -8.12054627571495       60.23572517324600       23.17539509734362
C           -7.60908998822277       60.88614450133589       22.08247081713683
C           -6.80525975689622       59.90711280840767       21.36994890232059
C           -5.08258954508240       59.35994510647092       19.70802716159641
C           -4.25449034033914       59.70304297284923       18.58076984550099
C           -3.52357326060944       58.57987144130231       18.29807623085550
C           -4.01964489375525       57.54450891638294       19.18889020688402
C           -4.14926886552526       55.19385870740516       19.85602263993419
C           -3.84448581109711       53.79479376735603       19.66517470621325
C           -4.42688523463286       53.13881834846438       20.70419162095498
C           -5.04297432554933       54.15539826379531       21.52745072937135
C           -5.67471499029550       53.88761193343792       22.72707394669927
H           -5.70972425607342       52.86277788532503       23.06349058947548
C           -7.71788399756823       57.98615743767251       24.17879772078422
H           -8.33283591911167       58.27116857127452       25.01900565838893
C           -5.93111253023219       60.24484276436630       20.35151905120335
H           -5.94903587237028       61.26367746524005       19.99607745129127
C           -3.69100328404530       56.20804241505652       19.03439998297693
H           -3.02068814249799       55.94314427145481       18.23044925634541
C           -8.28741988995381       55.99368078830963       26.42869461247017
H           -8.33681587396875       55.11022586963016       27.06047406802268
H           -9.30584304148951       56.29845160846951       26.18668050956519
H           -7.82157055472870       56.79825312910764       26.99865485965723
C           -6.78875882685102       53.26034194717855       25.50717438635580
H           -5.74929340675217       52.94794827230720       25.60565841235266
H           -7.32030228529757       52.49010790687904       24.94699672260932
H           -7.22442933779502       53.32224254649154       26.50153434416855
C           -8.97241418456356       60.79255647664075       24.26353818622114
H           -8.63685490793090       60.44148286954807       25.23817907690889
H          -10.01259418997959       60.48744620828204       24.13560511146961
H           -8.93101137709939       61.87993703661769       24.25287525325386
C           -7.86831284644311       62.23314180425205       21.62435069652814
H           -7.04582480427296       62.72011127230590       21.11340853661470
C           -9.00873023893853       62.89887580107520       21.77651568916084
H           -9.87761576923916       62.45358507813084       22.22878157639935
H           -9.12130558646157       63.91056972293815       21.42323871733579
C           -4.11112267121639       61.06936173774492       18.00631677355720
H           -3.16472987368227       61.15698986630662       17.47658106850922
H           -4.14305257981962       61.82464123501131       18.79018452895493
H           -4.92025323978371       61.27831110045707       17.30470606903589
C           -2.47995387296742       58.38301502594445       17.31768073903091
H           -1.69352897973313       57.69659319561296       17.61081390040067
C           -2.41980663401434       58.96191410808471       16.12232027627736
H           -1.59850634700166       58.78041544211790       15.44889389243312
H           -3.19724961052915       59.61283610205141       15.76183800977564
C           -3.07658799193850       53.25102865436348       18.50973503764677
H           -2.06197147582977       53.65035841014101       18.50427074760647
H           -3.55177342379433       53.52727024986675       17.56832357127978
H           -3.01602320709891       52.16653286983762       18.56005075175886
C           -4.45239692316315       51.67959720039627       21.00602984665343
H           -3.95795021391576       51.11350592488908       20.22031099966043
H           -5.47942163965706       51.32448097353493       21.09230380574611
H           -3.94340844449479       51.47338066470874       21.94819061000614
O           -4.11000000001777       57.67299999996015       22.75700000001239
H           -4.31900000002960       57.10100000002436       23.49600000000020
H           -3.48700000003551       58.30699999997045       22.74300000000827
C           -9.29399598108206       54.98972080921043       17.58457418985661
H           -8.48854031876947       54.78205401832384       16.88676936827725
H           -9.99213506306576       55.68269270683076       17.11409958008670
H           -9.82457291802857       54.06125215205929       17.79480828703558
N           -9.50938052508117       55.85339504963257       19.92493227622133
H          -10.50167113578633       55.70158517284087       19.99758764193395
C           -8.73417060354094       55.57090739732497       18.83107639935920
C           -8.70051659154017       56.37236457506025       20.87760504091696
H           -9.03358971120182       56.68677677354163       21.84505196922611
N           -7.46116738714681       56.43389336357908       20.45306922382152
C           -7.46697600341327       55.94056820301656       19.18059473860511
H           -6.56328986677434       55.88662226642273       18.60887091470524


--Link1--
%mem=16GB
%CPU=0-71
%gpucpu=0,1,2,3=0,1,2,3
%oldchk=1bek_II_S.chk
%chk=1bek_II_Sn.chk
# apfd/def2TZVP int=(grid=ultrafine) geom=check guess=read pop=nbo scf=qc

1bek_II_S_nbo

0 1


