%mem=16GB
%CPU=0-71
%gpucpu=0,1,2,3=0,1,2,3
%chk=1dp6_05_opt.chk
# opt apfd/gen scf=maxcycle=999

1dp6_05_opt

0 5
Fe          48.02661066170270       55.66604479829060       33.87292554016587
N           47.25662797021739       54.77794013456200       32.23203339709809
N           49.85746723380003       55.56834905601598       33.05355973067265
N           48.78170405826724       56.64630154007580       35.46722688289248
N           46.17421207410640       55.94506002131477       34.59469529821268
C           45.94463682803002       54.63112726136477       31.92678342370256
C           45.79490227849583       53.84896105005358       30.71982210663480
C           47.05106867912058       53.50476458690807       30.32101024927225
C           47.96485218950326       54.11423123363480       31.26515750334965
C           50.21872393721588       54.86357703151874       31.95047790388483
C           51.59366829044306       55.05372271369650       31.65657749683705
C           52.07899353956188       55.94750101323697       32.60518277930145
C           50.97880006641179       56.21589088833959       33.49068821251275
C           50.07629455383216       57.00186885932575       35.65723208285225
C           50.26573526149242       57.52171100978812       36.98700640656706
C           49.04531448471637       57.44901534370928       37.61252375621445
C           48.12187171268867       56.89723721706776       36.63897202862267
C           45.84617444603134       56.36595437146482       35.83716670313228
C           44.42515848673609       56.40830711013741       35.99760515134385
C           43.88797470391886       55.99950551458821       34.79947271378362
C           44.99469413962333       55.68674879727369       33.94686621357717
C           44.88495491734741       55.09882529293121       32.69208877692162
H           43.88778283645384       54.90814031033613       32.32578476736569
C           49.33060804195576       54.12213054110587       31.13997058159115
H           49.76561128615134       53.58606186346348       30.31056570598567
C           51.09141725122435       56.85983838230802       34.71720323314982
H           52.07740489808334       57.19365925729078       34.99974141898322
C           46.76683620001927       56.77597857174612       36.82101584135883
H           46.35797843133397       57.05225298427779       37.78048091950773
C           47.48140039554309       52.68396192423039       29.15565902640351
H           46.62153962197934       52.28502352810875       28.62403985683637
H           48.09845410020228       51.84999719164825       29.48811555271542
H           48.06964830129017       53.28272577196625       28.45944757507977
C           44.48274405908806       53.50180447322648       30.10574779745681
H           43.90980794337095       54.40357545613334       29.89010186415588
H           43.89679380177891       52.88273195431545       30.78509430367044
H           44.62317771837269       52.95377218101385       29.17773856824394
C           52.32088249982566       54.44768403252051       30.50544673945806
H           51.93767715933775       54.83061168090465       29.55806303740846
H           52.20144153245041       53.36434240893487       30.50422863610311
H           53.38144262138197       54.67842091746352       30.55827491671142
C           53.41236173464026       56.48765800982883       32.67185955008745
H           54.19324312422534       55.83753201046380       32.29318247986662
C           53.74900794120509       57.70166899807428       33.10588184879922
H           53.01474951744624       58.41837641304479       33.43195620620600
H           54.77571528901650       58.02674703482469       33.12145002575124
C           51.57162772767917       57.95281457847400       37.55634421192825
H           51.80033575656088       58.98248095596627       37.27547145967600
H           52.37681972706808       57.31734353132471       37.19261628869961
H           51.54214160989720       57.89028114038231       38.64185279499753
C           48.68235876329764       57.80515897423442       38.96462720307743
H           47.90010797311714       57.20066753535269       39.40690768910051
C           49.21825047585283       58.79318551249501       39.67585892691606
H           49.96461531165170       59.45401621923408       39.27066449992371
H           48.90607595202138       58.98960611609600       40.68781387712746
C           43.72626744940813       56.82519577315616       37.24621375560687
H           43.98932944530060       57.84875455985915       37.51648785300523
H           44.00868629617972       56.17410695437710       38.07318805621814
H           42.64797946315947       56.76959569630624       37.12159299882664
C           42.45497314365805       55.85590028328451       34.41594216608424
H           41.80725928165858       56.27406514984729       35.18213601081228
H           42.19667383403824       54.80417055207759       34.28823311955254
H           42.25350082852594       56.37018981342675       33.47634175886338
O           48.17858879614882       54.13994297022253       34.75055796550878
O           47.87313193370456       53.83459392156728       35.96014499499850
C           48.12064066277488       60.05713685871866       30.15956545963723
H           48.81867591856937       60.86938955366683       30.36090901715598
H           47.17592074250339       60.49233308238178       29.83433179204230
H           48.51931280392783       59.44785717927937       29.35461114771957
N           47.42990298131325       59.72314392729970       32.54360443824778
H           47.15593035883542       60.67933853375260       32.70308966032679
C           47.92612227857012       59.21960472152663       31.36872114436827
C           47.38009580673042       58.71288341927970       33.43566423862397
H           47.03207632296829       58.81318698882835       34.44366850279302
N           47.81358920101295       57.60032163888164       32.89868311663163
C           48.15714573601610       57.89595579398429       31.61385014442348
H           48.54469659825261       57.14243732222319       30.96018089661492

C N O H 0
6-31G*
****
Fe 0
TZVP
****


