%mem=16GB
%CPU=0-71
%gpucpu=0,1,2,3=0,1,2,3
%chk=1cyo_01_opt.chk
# opt polar def2tzvp uapfd int=(grid=ultrafine)

1cyo_01_opt

0 1
Fe          33.37320424799462       20.23632218492306       34.29341905888419
N           33.14780923748737       18.43982058014052       35.15018506967075
N           34.04305075285875       19.35739098062007       32.61979428497305
N           33.60232127350701       22.04243823042322       33.44468435425652
N           32.69747074447537       21.11453160913355       35.96562017858472
C           32.69597087669157       18.18320603217141       36.40337947873021
C           32.67937922862714       16.75875672452504       36.66016009518491
C           33.13190662454333       16.16117293887210       35.52626111076349
C           33.41979477738442       17.22995779389640       34.59359042503349
C           34.19041108082233       18.02344316039754       32.39953907523876
C           34.68081885183609       17.77345844378438       31.06822366580532
C           34.82646979916912       19.00028251342152       30.47638499154340
C           34.42968582522726       19.97516297992669       31.47593072380149
C           34.05517714712649       22.29707804874644       32.18733104537426
C           34.07980289052369       23.71307780268223       31.92844053787345
C           33.62190444706381       24.32178493205388       33.06858007474434
C           33.33754516846177       23.25043901386800       34.00343842419376
C           32.53757494584212       22.44666112041604       36.18252569458103
C           32.01526364620423       22.69023668986472       37.50908279177271
C           31.86627936207982       21.46883416503417       38.08882344998761
C           32.29785572130195       20.49790892282245       37.10758919120195
C           32.29599793543971       19.13295176602913       37.32444040980563
H           31.95373922157383       18.78179428091762       38.28626238274136
C           33.90264106590117       17.02334065920149       33.31546695902980
H           34.06084065856968       16.00141343177558       33.00414120134161
C           34.43102782366009       21.33910426092692       31.26137779317667
H           34.74341413512972       21.68896637740380       30.28904973524359
C           32.82982278134916       23.45016042695955       35.27603327845036
H           32.64306206890050       24.46750118786968       35.58670512821902
C           33.32105801193348       14.71197095984810       35.23116986731944
H           33.03587893464342       14.10270474448530       36.08543272061063
H           34.36422356417766       14.50087226965189       34.99336743638115
H           32.71295215583440       14.41062192312415       34.37761005861341
C           32.23846296192608       16.13951917659508       37.94237899858909
H           31.20062499690068       16.39720463065634       38.15543000288304
H           32.85148393946045       16.49579546651024       38.77068644906102
H           32.31966034774695       15.05601261449095       37.89801052008540
C           35.01888486548977       16.43258054543577       30.51445895158170
H           34.12698950613724       15.92982164380312       30.13599385658103
H           35.46254011233131       15.79845368193032       31.28085507722826
H           35.72769814291385       16.53530669287400       29.69513144211906
C           35.30240484747060       19.32340967643259       29.15035373844327
H           35.85446371567395       20.25247201396995       29.06456042835702
C           35.11024625636130       18.58926116474794       28.05868101001015
H           34.52966117127182       17.68345828906238       28.07170250119944
H           35.50788560537519       18.88670165647425       27.10228245719771
C           34.58622473550045       24.35012634392174       30.68116652323692
H           33.81774143684729       24.35638612243708       29.90615868535540
H           35.44830793770120       23.80829182858471       30.29503800590210
H           34.88206029450134       25.37850480398247       30.87973011934631
C           33.46133377273276       25.72942996583814       33.35454682808876
H           33.62430064899541       26.01920495402660       34.38678848524545
C           33.12768367082879       26.66716860007762       32.47278963192703
H           32.90597921255207       26.43549912161275       31.44580305129423
H           33.04061964782267       27.70281199540944       32.75763718846252
C           31.72296857019910       24.04282144070228       38.06488508688662
H           30.99170447276851       24.56380129499269       37.44596318976833
H           32.62853589407177       24.64977099171401       38.09822181163947
H           31.32511653020639       23.96864519005136       39.07410826677589
C           31.36631633407164       21.12539983000593       39.45055996394042
H           31.09982757369497       22.02279147487811       40.00400766812360
H           32.12925685922893       20.58835314913184       40.01480456861355
H           30.48423808898900       20.48782981094144       39.38533877684755
C           28.53278487471330       18.64914819446879       31.96610687855941
H           28.24608444818460       19.12069691100903       31.02603360231437
H           27.64893366782425       18.59060430071550       32.60146527185986
H           28.87928150779958       17.64167550800997       31.75808812514942
N           29.45709175723058       20.72327040373932       33.02275366504782
H           28.62644716237638       21.27874590014307       32.90025460728265
C           29.61345434535736       19.41813455276004       32.63396432410310
C           30.61684542358266       21.12212854209374       33.59183787320293
H           30.78366323722008       22.10201170916690       33.98914977953032
N           31.49624666327689       20.15130000840620       33.58725509153814
C           30.88711827926519       19.08478748244039       32.99524156016426
H           31.40240825646618       18.15535123836751       32.86962348199444
C           38.67158618599768       19.17292036929143       35.76297542443440
H           38.91025619654786       19.13651790486994       36.82602303453825
H           39.46238673844179       19.72502513316339       35.25495643300361
H           38.65164966689216       18.15891843035686       35.37598912267388
N           37.08506726122670       21.10416179129059       35.92461078941320
H           37.73054648603283       21.72790774517183       36.38049743531412
C           37.35172548729518       19.81582886596392       35.53971060333024
C           35.80700775852591       21.37793033521219       35.57837128916681
H           35.32495277812332       22.31656540402675       35.75800384657419
N           35.24923213447035       20.34393153242089       34.99913118200807
C           36.19713446152326       19.36438649866705       34.96784777989359
H           35.98651806551315       18.40684991103523       34.53899482098264

--Link1--
%mem=16GB
%CPU=0-71
%gpucpu=0,1,2,3=0,1,2,3
%oldchk=1cyo_01_opt.chk
%chk=1cyo_01_nbo.chk
# uapfd/def2TZVP int=(grid=ultrafine) geom=check guess=read pop=nbo scf=qc

1cyo_01_nbo

0 1
