%mem=16GB
%CPU=0-71
%gpucpu=0,1,2,3=0,1,2,3
%chk=1c52_12_opt.chk
# opt uapfd/gen scf=maxcycle=999

1c52_12_opt

1 2
Fe          16.46280175925686       35.26653797056514       34.35013766296907
N           16.70956938109994       36.86567638583255       33.18584427463626
N           18.30437060140174       34.64591339954828       33.89074928740482
N           16.20284433658103       33.64360031435022       35.47657831522623
N           14.62249063945001       35.86918935704037       34.78578115521766
C           15.88920332202437       37.94591038635881       33.10297799533306
C           16.41171725363798       38.90531808293434       32.15693380772433
C           17.55104779732388       38.35943152528744       31.64522812283774
C           17.73273657933643       37.09252239164083       32.31673087261130
C           19.11966353699060       35.16218711206545       32.92970734189127
C           20.36925237046079       34.44903967322792       32.88903922160837
C           20.30484253270325       33.49761547470330       33.87621462101433
C           18.98585699936541       33.61702015908511       34.46239639240110
C           17.15330330974823       32.73560733166345       35.83834993588242
C           16.57818810303910       31.69691792631243       36.65434234641959
C           15.23867106103945       31.97740573203133       36.74420032937898
C           15.03109432634497       33.20359033632106       36.00364515218907
C           13.66231287606503       35.15640831226118       35.43268983774271
C           12.45757356626156       35.94222832938370       35.57346369714733
C           12.72589938186620       37.15826722413198       35.01956409669600
C           14.07638332697318       37.08517438631524       34.51055487234166
C           14.67636334549007       38.07631276633239       33.75641457673044
H           14.12477899314303       38.99051284450285       33.60466390594781
C           18.84170884322371       36.28319627371975       32.16455191249426
H           19.58536195860037       36.59115938174354       31.44674877810543
C           18.47143687482873       32.75389663584193       35.41280856268102
H           19.12603357766552       31.98688734132536       35.79545295584389
C           13.83133182146452       33.89218738387910       35.96550526342745
H           12.98348588716850       33.44320836188367       36.45834902170341
C           18.48185849646015       38.90691432193074       30.62258354849241
H           18.09401294935058       39.83100547227473       30.20414225409814
H           18.62152443050756       38.19385201136782       29.81109478931274
H           19.45730061086932       39.11372268749583       31.06280594150399
C           15.76742071286061       40.20839770410767       31.84379306692043
H           15.63279867436448       40.79398708531287       32.75218850770413
H           14.78750203463234       40.05488373715807       31.39203911088441
H           16.37635608239085       40.78349275547340       31.15247437118969
C           21.46555169114800       34.70306048590358       31.91941773287261
H           22.08692616470702       35.53830238515563       32.24484009269344
H           21.06330030298972       34.94436386035481       30.93740298233955
H           22.09667535723466       33.82175554922539       31.83215325584915
C           21.29862555126533       32.52051541666700       34.26781864737573
H           20.91457172564570       31.56708917531535       34.60809410993360
C           22.61184364920685       32.72056498952365       34.24705912931587
H           23.04532274911193       33.66393292532997       33.96498649226565
H           23.29992660857445       31.94785841215455       34.54293132652720
C           17.31453512610001       30.52631076264077       37.19765735337801
H           17.84737716461087       30.79336633857528       38.11110839800379
H           18.04378855641062       30.15681095089050       36.47921439831519
H           16.61793199464429       29.72433875433088       37.42947769769371
C           14.19085455144223       31.24012309266626       37.41913484014469
H           13.22525452609764       31.24708637728442       36.92879230989424
C           14.33637154070440       30.58713179711824       38.56652625479661
H           15.26137602538196       30.59131343984700       39.11613045763658
H           13.51834400491334       30.04793644200787       39.01182155834655
C           11.21444997819741       35.45928363934789       36.23096014359881
H           11.39517619459447       35.25502931300071       37.28615658511045
H           10.86594315897404       34.53922486856712       35.76338129240521
H           10.42546382070445       36.20188259689066       36.15675307652068
C           11.85248710191525       38.35654135954095       34.90761433977743
H           10.91257803212988       38.19834221238457       35.42811393470958
H           11.63291845354149       38.57713841390350       33.86299908829594
H           12.34329153256210       39.22667946029033       35.34113669275077
C           15.34860507407833       31.41226683724419       30.45819388111978
H           15.64601982849142       31.62067323587750       29.43119132119138
H           14.34731873189354       30.98357516327276       30.44025257717900
H           16.03250502963405       30.68103264702779       30.87701012875519
N           14.61150686773109       33.74735458451848       30.97606026847382
H           13.97513719147010       33.82401253142229       30.19804670140242
C           15.37415565826680       32.64986434537714       31.27299086041911
C           14.86269593044968       34.69221376505438       31.90045024812039
H           14.40403911345896       35.65973389256432       31.91713040534875
N           15.74408213646471       34.26048708146424       32.77287333349286
C           16.07239439660617       32.99143435647628       32.39681523861379
H           16.78107086637102       32.41200995607134       32.95120513809002
C           16.15434300043660       35.57455970000854       38.43878002717332
H           16.29446193089326       35.01172094912648       39.35865372336322
H           15.41932306255990       35.05963477301276       37.82585754890780
H           15.76804211343243       36.55938715135436       38.68896980915342
C           17.47468459315921       35.69556905647107       37.70446412596360
H           17.88266629703267       34.71815974156028       37.44930388366548
H           18.19802839193856       36.25339253765421       38.29919702794902
S           17.25013092220239       36.64401993140887       36.14768707592763
C           18.99702071111806       37.01038513513669       35.80853578201557
H           19.57915207470201       36.09415315219011       35.80753891871225
H           19.36102718632491       37.69547718699216       36.56941565605830
H           19.04360497453666       37.48272069435984       34.83294822261327

C N H S 0
6-31G*
****
Fe 0
TZVP
****


