%mem=16GB
%CPU=0-71
%gpucpu=0,1,2,3=0,1,2,3
%chk=1ccr_II_S.chk
# polar def2tzvp apfd int=(grid=ultrafine)

1ccr_II_S 

0 1
Fe           2.85723713216997       16.92266210734034       24.55501209374137
N            0.88194306451054       16.97324349442356       24.48143374600197
N            2.84084104493504       15.18720900353839       23.54874214508772
N            4.86826214236213       16.88246292053959       24.50975616344299
N            2.90932905629059       18.67536062661972       25.49604989240392
C            0.08774908818522       17.98437449866784       24.91905420199583
C           -1.30704057920826       17.60801890188349       24.83466181051929
C           -1.32993572442116       16.33329820488687       24.36250369953893
C            0.04829008490891       15.96456371157230       24.12367771711992
C            1.75605428033158       14.39686638771667       23.33058275455240
C            2.14602251381796       13.14924087632054       22.71365094704627
C            3.49996309834303       13.19477033700643       22.58683725791021
C            3.91355169214278       14.47491521413979       23.11654995774854
C            5.66904516719367       16.02209498885279       23.83031230416225
C            7.06642451870540       16.33076242560135       24.05740060576180
C            7.08159482589563       17.45334137330522       24.84215439950616
C            5.70348791598042       17.78408158193341       25.09814642503972
C            4.00676660960210       19.34311117236550       25.93096034511042
C            3.63118865369457       20.62248466484445       26.50233092424714
C            2.27971864832778       20.73865023065752       26.30323711237258
C            1.85072390917267       19.50385426360207       25.69977978487888
C            0.53066060520816       19.19298338522004       25.42076808108578
H           -0.21789264613604       19.92648649579758       25.67954379513565
C            0.44636388408553       14.74709223196907       23.60372780537316
H           -0.32204105948667       14.02397225194340       23.37661422681253
C            5.22881001571231       14.89798599155497       23.15548969699772
H            5.97245431375889       14.25431399303895       22.71159828213584
C            5.30612630494238       18.87626295126406       25.85173892247592
H            6.08225314079350       19.47717103885219       26.30065237029659
C           -2.44133076467778       18.48692080937185       25.23698677563744
H           -2.42085617016434       19.42076847053120       24.67462560011482
H           -2.37938558016230       18.73021026407998       26.29793205945603
H           -3.39462438692084       17.99741416650974       25.05322963528615
C           -2.49530523695823       15.44289411858562       24.09764090790927
H           -2.41232780371326       14.52476293381008       24.67918748602549
H           -2.54127948332978       15.17121503777604       23.04241123605574
H           -3.42720895640949       15.93468128459362       24.36540905660756
C            1.39563349401394       21.89889974169229       26.60051129622969
H            0.87621453090406       21.76137679125344       27.55056550312959
H            0.64527813459944       22.01847718909072       25.82042984307865
H            1.98516771056507       22.81163159214771       26.66145443691052
C            4.55502289874675       21.57249793876963       27.07914440599373
H            5.55818291792719       21.56255263301064       26.66861133635112
C            4.27348058720419       22.42351142157687       28.06096526005898
H            3.31106639564475       22.44689564477017       28.54124987007430
H            5.01120530181514       23.11269253303158       28.43724761575184
C            8.25656797271935       18.24064836724092       25.30766742867629
H            8.50565271370773       17.99800684859406       26.34235017181025
H            8.05117228159718       19.30887936409504       25.25304487154471
H            9.12204595854661       18.02144534416832       24.68561052231732
C            8.17303450998820       15.59354573272161       23.48969847765232
H            7.99415802399604       15.16049480516386       22.51212326942976
C            9.35290750661505       15.40560361635093       24.07210851024562
H            9.56835844835750       15.77097268926937       25.06112455773658
H           10.13997520565867       14.85344109266955       23.58577465391998
C            4.43165809324992       12.17409689879866       22.02969406801392
H            3.88897627178318       11.28677410077559       21.71279690004554
H            5.16635338469879       11.87821282616556       22.77887325899712
H            4.96930020851927       12.57294397372074       21.16889404019967
C            1.19738058007610       12.06083796724282       22.34390706957198
H            1.72841339036227       11.21331809850990       21.91742629724303
H            0.47276186807429       12.41559755533367       21.61033517633388
H            0.64850107754576       11.71653632345764       23.22079811016953
C            3.95012765554148       20.40144300270913       20.32850237777952
H            3.15909690881427       21.07832349334862       20.00577872754490
H            4.42593245876991       19.98525119271602       19.44051844918135
H            4.68886793802951       20.96979059458167       20.88483312906794
N            2.44227737360450       18.44694625987706       20.75236272220113
H            2.02260972503114       18.44251582888689       19.83718036884154
C            3.40246055973330       19.32213518586467       21.18853155786467
C            2.16791242159768       17.59961510438326       21.76899730699283
H            1.45287724149913       16.80519647922896       21.71556067258911
N            2.89494935919482       17.88508262151546       22.82068355985424
C            3.66791008127166       18.95321600419748       22.47616285199226
H            4.35903828900121       19.38308803486500       23.17099146567934
C            3.37937041357507       13.06123800132391       26.36818867342497
H            4.14981406133798       12.29272004707344       26.38079764491779
H            2.89814369780614       13.05326292032992       25.39478908171616
H            2.63381121823065       12.82466696561439       27.12369060326889
C            3.99659925400318       14.41926516333053       26.64162203055055
H            4.74218967114443       14.67129186119253       25.88994930871011
H            4.44754750240588       14.44583475848929       27.63286283597458
S            2.69993940532856       15.72613991134597       26.61167793004702
C            3.36897344675651       16.79285265881918       27.92533791050953
H            4.36985053192111       17.11917103733698       27.66148330350981
H            3.36832816137629       16.24333596410214       28.86306703156470
H            2.71126983759343       17.65222340858272       27.99763327920266


--Link1--
%mem=16GB
%CPU=0-71
%gpucpu=0,1,2,3=0,1,2,3
%oldchk=1ccr_II_S.chk
%chk=1ccr_II_Sn.chk
# apfd/def2TZVP int=(grid=ultrafine) geom=check guess=read pop=nbo scf=qc

1ccr_II_S_nbo

0 1


