%nprocs=12
%mem=16GB
%chk=1ac8_II_S.chk
# polar def2tzvp empiricaldispersion=gd3bj apfd int=(grid=ultrafine)

1ac8_II_S 

0 1
78
 energy: -116.028724721235 gnorm: 0.064068460703 xtb: 6.6.1 (8d0f1dd)
Fe          28.35908129191488       93.68705089243149       52.88737790718302
N           29.41985241327281       95.27321376952523       52.40915122238224
N           29.49891216777035       93.52387005344471       54.69795495727286
N           27.39008836354445       92.02618430677397       53.69205512229008
N           27.28194236979582       93.71069927822214       51.31312373941883
C           29.12952366771659       96.04328771274926       51.31696831198634
C           29.93156750094426       97.24622819435029       51.34011491932396
C           30.67470658945008       97.20753553320890       52.48131595859552
C           30.32001258246028       95.97799402175924       53.15840508327795
C           30.43656085240547       94.43241343175322       55.08659983467847
C           31.06041573736418       94.03801842131463       56.32489001931665
C           30.51117346504623       92.82682308544608       56.66006226786015
C           29.52993504362420       92.53829395306708       55.63355276535985
C           27.66620072779426       91.22142720200513       54.75894684945406
C           26.72245301649676       90.13157417788726       54.83906267654616
C           25.87383417350914       90.28416830310270       53.77450848207167
C           26.34204539774969       91.45089461239884       53.04389699955014
C           26.30465242731087       92.83116545744794       50.98527002322426
C           25.83308650118835       93.11235353466103       49.63940003887423
C           26.51450062133342       94.21054348469326       49.20763905210080
C           27.40332348967452       94.59093159733456       50.28983551202129
C           28.24342342729321       95.69475553491769       50.30138425827077
H           28.19069370483876       96.39282303031587       49.47926733930058
C           30.80383186854707       95.57597113521258       54.38736377828170
H           31.57596355155734       96.17803770821668       54.83935200388555
C           28.69621304076288       91.43355739924999       55.65479007204589
H           28.85820616695941       90.71863108931876       56.44615152562235
C           25.83800997734659       91.81395319205261       51.79581155561267
H           25.02618812745169       91.20557860190605       51.43262970858940
C           31.67226868986825       98.20058672920780       52.97792938738223
H           31.34377489259150       98.64967289076374       53.91589019884406
H           31.81567136630747       98.99843431268846       52.25241935738553
H           32.64077366875372       97.73028215171706       53.15520935885584
C           29.91634872755660       98.28013334583817       50.26497329985264
H           28.91079223990725       98.67546327845818       50.12386497349078
H           30.24402649363525       97.84344909284962       49.32125783573274
H           30.57895212710230       99.10807280283019       50.50502224241031
C           31.98094575912516       94.88320796953884       57.13639614641248
H           31.66558824274074       95.92540968988210       57.10052129307046
H           33.00842849966561       94.82856319022180       56.77614509997763
H           31.96505331986834       94.55456130927075       58.17421795382980
C           30.74496916551245       92.03823498260275       57.85155900577492
H           29.88234246388243       91.52747205283056       58.26345895876668
C           31.91361896968352       91.91585549556476       58.47458418798067
H           32.81453480743626       92.36544298467369       58.09585400648237
H           32.01714417874874       91.33815856848284       59.37929051193965
C           26.64987278237812       89.11439760211458       55.92608044620999
H           26.85912069733271       89.56400863031729       56.89571383741241
H           27.36815293037886       88.30557572079589       55.77256901872712
H           25.65322941774884       88.67649449195707       55.95511416617775
C           24.72495532641402       89.49009668424543       53.39981969525673
H           23.90271887150012       90.05028193919786       52.97101164717093
C           24.60994242446615       88.17335573952647       53.53947361573025
H           25.41370745883493       87.56495665584104       53.91489590507121
H           23.70949585994040       87.65693195001360       53.25227310019393
C           24.83417688639479       92.29528813631784       48.89164026250126
H           23.85101636094163       92.32954435839122       49.35454447617532
H           25.15141432011745       91.25292659163098       48.85151831648562
H           24.73510693776856       92.65789591306346       47.87034414099044
C           26.46600196122364       94.85870718370634       47.86658623982774
H           25.78516372808082       94.32428487076808       47.20650528753271
H           27.45649059729982       94.84547207924216       47.41156086939093
H           26.13498623551575       95.89214201803493       47.92024015582940
O           26.91999999999071       95.13999999999952       53.87000000002123
H           27.24000000000057       96.02700000000119       53.70299999998410
H           26.19399999997818       94.92099999997170       54.33400000004111
C           31.04093960977691       89.45931233050746       50.39495453857042
H           31.65635981581606       89.63563729614201       49.51257285628477
H           30.16564725981759       88.89135956062763       50.10086900389556
H           31.61965109876966       88.86668891039180       51.10104501529247
N           31.55618176354569       91.59055565529604       51.57257806486544
H           32.53608111175107       91.42084156078828       51.68379964243481
C           30.63553014814937       90.74151654506743       51.01723403796418
C           30.88973650553918       92.64669019224155       52.06851892411415
H           31.33301063487622       93.50154865849650       52.52832068183898
N           29.60241941831821       92.51863782966849       51.87452933908131
C           29.42859269469169       91.34726378247774       51.19693298283814
H           28.46970808155130       91.01270103800158       50.86296897968713


--Link1--
%nprocs=12
%mem=16GB
%chk=1ac8_II_S.chk
# apfd/def2TZVP empiricaldispersion=GD3BJ int=(grid=ultrafine) geom=check guess=read pop=nbo scf=qc

1ac8_II_S_nbo

0 1

--Link2--
%nprocs=12
%mem=16GB
%chk=1ac8_II_S.chk
# apfd/def2TZVP empiricaldispersion=GD3BJ int=(grid=ultrafine) geom=check guess=read scrf=(smd,solvent=Chloroform) 

1ac8_II_S_solv 

0 1 


