%mem=16GB
%CPU=0-71
%gpucpu=0,1,2,3=0,1,2,3
%chk=1ck6_II_S.chk
# polar def2tzvp apfd int=(grid=ultrafine)

1ck6_II_S 

0 1
Fe          18.38902123754971       23.23064727794667       30.01279495114965
N           17.06875575872955       21.91424175270307       29.27614975718837
N           17.05153557297220       24.69262921490236       29.72750409574787
N           19.54800320983107       24.50306033305986       31.02857583129903
N           19.65837884407173       21.76254588964179       30.40057525454209
C           17.27877226383127       20.58376942691655       29.09100028497690
C           16.06627590885337       19.93277930098688       28.65024629212289
C           15.12048437714809       20.90752738471336       28.55583830007458
C           15.76734735311497       22.14000444303484       28.94465223940139
C           15.76755158862251       24.56668019715043       29.29236990448280
C           15.12389778495247       25.85041407211593       29.20621658943836
C           16.04061858920644       26.77126470446205       29.63530049514664
C           17.22712711412500       26.01556333346000       29.98997776244206
C           19.34529963188738       25.83572085955603       31.20951642280484
C           20.34034835991537       26.39314421342068       32.08995564964018
C           21.16772095748512       25.35783330096201       32.43783719082820
C           20.66043272566195       24.19093355841981       31.74157048800236
C           20.84903115679208       21.84898766672835       31.04853748759035
C           21.60551854727374       20.62555690368782       30.89481252558425
C           20.80370970486873       19.76656632154163       30.21049238243439
C           19.58125055995717       20.48855777928754       29.92958833503508
C           18.47144436322668       19.92341710449321       29.33094302806333
H           18.52216542659644       18.87688305294311       29.07111789612683
C           15.14799803840019       23.37412929309555       28.95353626267746
H           14.11037913303164       23.41697732654941       28.65889938727836
C           18.29126050690036       26.55877016440279       30.68165728813764
H           18.25482527454228       27.61632924287698       30.89100669657132
C           21.30032652087574       22.96440132357769       31.73015161855836
H           22.23242469834714       22.87891950146790       32.26804767645223
C           13.68897497549450       20.79997622640337       28.15399011696523
H           13.42282795273883       19.76727897155678       27.94217967908625
H           13.49544689778666       21.39374867995632       27.26003415279423
H           13.03807100453582       21.16614418775907       28.94834967107002
C           15.94925304795503       18.47360700563905       28.36984978484145
H           16.18751249438899       17.89154032733898       29.26045403195563
H           16.64073545373986       18.17882840641479       27.58012773228306
H           14.94047393196031       18.21898954778065       28.05388734247014
C           13.73230687932860       26.08050244902669       28.72563979454122
H           13.01909973232651       25.51693706278580       29.32814667028106
H           13.62444872619000       25.75881207387034       27.68913484388188
H           13.47776741655802       27.13581839819501       28.78241953825365
C           15.86643039889609       28.20737921622239       29.69953755313901
H           14.87497528864103       28.54267719325300       29.98543582200498
C           16.79238775855985       29.11290879987156       29.40344202722046
H           17.77587337784179       28.83367157132894       29.06516770991996
H           16.58979980832464       30.16925755528071       29.46907145580766
C           20.37146678323090       27.80406858633111       32.56457945159385
H           19.36233185479140       28.17856261948051       32.72901511460391
H           20.85455638362146       28.45025498400798       31.82966441107039
H           20.92567110932166       27.87228825690194       33.49859022395182
C           22.31168675520918       25.35238030258424       33.32219104838040
H           22.46692010915803       24.43408167791086       33.87729001420342
C           23.16363652640268       26.35875687269104       33.49123756629087
H           23.08637672627471       27.27457674550744       32.93181320001008
H           23.98830550284452       26.28939617194585       34.18128352097855
C           22.97339938372501       20.41066547903319       31.44589616692920
H           22.96260978800868       20.47572006918189       32.53446950900197
H           23.66090418219533       21.16871045630121       31.07038967986431
H           23.35455033865119       19.43139696827142       31.16664324086224
C           21.06515067045249       18.36057528117003       29.79102707067016
H           22.07839325188611       18.06184158492937       30.04863287671611
H           20.93606393102656       18.25095349507406       28.71428719817121
H           20.37226540816197       17.67859792217399       30.28526941111966
O           17.35200000009213       22.72199999990584       31.97600000007050
H           16.79999999999584       21.97299999992675       31.74900000002028
H           17.43600000003176       23.08900000032196       32.78199999992873
C           22.00205596735848       24.11956810769819       25.87762644065064
H           22.00518598387257       25.10476549359772       25.41119164184698
H           22.07809053109580       23.36965699589903       25.09040323597823
H           22.87148139843246       24.03760811159264       26.52225623169859
N           19.51710484177406       23.93120173528167       26.12083282357349
H           19.30971953396516       24.07434142316356       25.14614023235330
C           20.76840148179074       23.91909699259661       26.67934723442456
C           18.62300072364620       23.72113959728016       27.11421807408755
H           17.56287512222898       23.67945032435233       26.97215138522963
N           19.23266841281564       23.57691488598955       28.26592046751966
C           20.56746597362278       23.69820195657402       28.01196177449356
H           21.28651292162034       23.61803763416602       28.80109903324842


--Link1--
%mem=16GB
%CPU=0-71
%gpucpu=0,1,2,3=0,1,2,3
%oldchk=1ck6_II_S.chk
%chk=1ck6_II_Sn.chk
# apfd/def2TZVP int=(grid=ultrafine) geom=check guess=read pop=nbo scf=qc

1ck6_II_S_nbo

0 1


