%mem=16GB
%CPU=0-71
%gpucpu=0,1,2,3=0,1,2,3
%chk=1cxy_05_opt.chk
# opt uapfd/gen scf=maxcycle=999

1cxy_05_opt

0 5
Fe          29.06266484628392       25.25263937946942       13.25891479715424
N           27.63153182954275       25.86461709583342       11.98404748676337
N           30.25566140232327       26.72778334832625       12.62704293273820
N           30.48766446082006       24.64937028623382       14.53277428978716
N           27.87894919816221       23.73297936789531       13.83091198716541
C           26.32616502454846       25.43863964724507       11.94102142355345
C           25.60957178637624       26.14487531352047       10.92536918545024
C           26.51788826353965       26.98251250022298       10.31812994629230
C           27.75917256862370       26.80070150422491       11.00134600466739
C           30.06101176726127       27.52877427681641       11.52806444648433
C           31.16001851315873       28.42640223201064       11.37289159075281
C           32.01773780513720       28.18084820348623       12.42308504107560
C           31.44020082697649       27.11290962825229       13.17500682988110
C           31.62180507762160       25.33011906398156       14.88418814212367
C           32.33264372932549       24.61752817804903       15.90763152913230
C           31.60934763622418       23.43688170298088       16.12013708567310
C           30.48247659872833       23.49526118299750       15.26823876674894
C           28.27268733051520       22.62763888707458       14.53758915263812
C           27.18402608589619       21.69720391473511       14.64702972625025
C           26.08845749504438       22.31959297709731       14.04304639045422
C           26.55853876700923       23.54518132537228       13.51929332585290
C           25.80658730834347       24.39306229670852       12.68961522182615
H           24.77204261052649       24.13108498708968       12.52881504402451
C           28.91396256125993       27.54363318880224       10.74904870229354
H           28.87497966838690       28.25366412925039        9.93765722844598
C           32.05429932827789       26.49999040685614       14.27360119711158
H           32.98739424918719       26.92740657404811       14.60570078674425
C           29.46956962209487       22.52477533928645       15.22625825488986
H           29.58233716767242       21.67410609707748       15.87816386579914
C           24.16462118304317       25.94605575519989       10.61400757168254
H           23.55488741454295       26.08365088733273       11.50757384244804
H           23.98391566398212       24.93765136522175       10.23776500544493
H           23.83049938744124       26.65526939498470        9.86078858559068
C           26.30408047842869       27.92857664302868        9.18539527653173
H           27.00107530701497       27.71976497828794        8.37323637878822
H           26.46337351347955       28.95863038341047        9.50766735106455
H           25.29210109580307       27.84490006545377        8.79652636299373
C           24.70581769889972       21.78506542616665       13.87981167502055
H           24.52350607816149       21.48163400186552       12.84665686253270
H           23.96507089256763       22.54112718379966       14.14168221092407
H           24.55163334698968       20.91733151073091       14.51626114602809
C           27.19459322672714       20.38656283493163       15.23186701527511
H           26.23917019672069       20.04617979657449       15.61833863393858
C           28.23207070695499       19.54809199725587       15.29353585515802
H           29.19018879601392       19.78847316037075       14.86635608252057
H           28.14139315150669       18.57752232766925       15.75221544933001
C           31.97122793896031       22.29560275860991       17.00648128122440
H           31.56878422948528       21.36208495629400       16.61783368128748
H           31.57530804929414       22.43725962289573       18.01442366525674
H           33.05384839523726       22.20296495656623       17.07408878175172
C           33.54261615540721       25.07111184612657       16.52764967769787
H           34.09863959985439       25.81642888985912       15.97012845147423
C           34.03013120626910       24.69217478295118       17.71320415656266
H           33.51789442428021       24.00285264222800       18.35875178218962
H           34.95828499165805       25.09301450958290       18.08580977803824
C           33.31156587475771       28.84669440176332       12.74977635844646
H           34.13813267181701       28.13655666929106       12.69254973291883
H           33.29023589468639       29.25579570096557       13.76056897054280
H           33.51286092590887       29.66056601677261       12.05763397216969
C           31.28749018058317       29.43099498261921       10.27852556601273
H           32.25289849442289       29.92938093665240       10.32098863937084
H           30.50727412510159       30.18966767326977       10.35796135613615
H           31.19168018395287       28.95169574649876        9.30404050579359
C           28.26376189374361       28.90676884647760       17.46712166846285
H           27.92798780927372       28.51203756752687       18.42584104474765
H           27.70150318855159       29.81648633956331       17.25668928743991
H           29.31694606082161       29.15775231184873       17.54391033625567
N           26.83984249771545       27.38955658944383       16.07161659598166
H           25.96954505128532       27.62475255048110       16.52064499998240
C           28.06986716355610       27.90559018354156       16.38896173613167
C           27.00852108017090       26.51415208865479       15.06086293811022
H           26.21570283704553       25.95743810606754       14.60305675535838
N           28.27144327284934       26.44325935413581       14.71562097770851
C           28.94527988405846       27.30327794158452       15.53221998313747
H           30.00537053755878       27.42806073298465       15.45062812530548
C           32.43849766161538       22.33790422278331        9.88198343323760
H           32.39110815122576       22.52352372886802        8.80906908343855
H           32.49009808318372       21.26085796085986       10.04000987694528
H           33.34338095749547       22.79092883200447       10.27443232135920
N           29.97304687950255       22.52726452151234       10.27997160805266
H           29.70726716498633       21.83383896997479        9.59961755896728
C           31.25606030832892       22.91403431271052       10.56927025828339
C           29.14091404739095       23.23178062888608       11.07293975891587
H           28.07403666430265       23.13781921854098       11.06604704912930
N           29.81954876236409       24.04315251874121       11.84769733802920
C           31.13653111140385       23.85925583411142       11.54713080356086
H           31.90047392272291       24.41398879850444       12.05193441750869

C N H 0
6-31G*
****
Fe 0
TZVP
****


