%nprocs=12
%mem=16GB
%chk=155c_II_S.chk
# polar def2tzvp empiricaldispersion=gd3bj apfd int=(grid=ultrafine)

155c_II_S 

0 1
87
 xtb: 6.6.1 (8d0f1dd)
Fe          12.76248264280398       34.11420816507336        9.16905019888160
N           13.55479505981543       33.18426407771028       10.76793966947968
N           10.92934932157739       33.82259941709813        9.94751817586142
N           11.95272269657736       34.94835502856047        7.54889193137901
N           14.59202675332917       34.36677271514407        8.41755768662532
C           14.87195038076582       32.95166677893681       11.00066134831182
C           15.05529532619833       32.22510402713822       12.23832627771757
C           13.81039984139405       31.99672421983032       12.73238073784094
C           12.88849468546254       32.62858572648000       11.81305523446638
C           10.61090249211408       33.19418442686464       11.11047216122729
C            9.18557221167175       33.19462323911497       11.32177739633838
C            8.63333683367200       33.75536863722695       10.20081219087801
C            9.74926662325826       34.19295715847760        9.38520358063265
C           10.63065422283063       35.15934846569399        7.30498110254258
C           10.43959529844532       35.78126252249587        6.02016230038857
C           11.68785681895083       35.92245042477770        5.47293136902678
C           12.61544171279942       35.37405538815273        6.44310046709062
C           14.89924731724141       34.88283716947294        7.19805066005390
C           16.32876141078537       34.86156442125360        6.97834565428071
C           16.87754496210243       34.32558380754156        8.10147352483801
C           15.77239979276908       33.98816814446162        8.97132730212884
C           15.91599273874938       33.33134761637937       10.17843296775181
H           16.91756320819448       33.08514504612432       10.49649450891964
C           11.51864937615698       32.59771682232373       11.96826052202210
H           11.12904756375283       32.11383790476764       12.85061192858171
C            9.59940808386090       34.83180871759284        8.16852570295830
H            8.59508716176461       35.07626774865228        7.85713298387777
C           13.98924883605485       35.38413043182311        6.28656731880643
H           14.38218020007441       35.78392096429408        5.36426824782443
C           13.40285403447470       31.28550673328948       13.97702661846440
H           14.27152883401911       30.89495468828617       14.50151031506856
H           12.74028820888070       30.45178182605919       13.74272404143187
H           12.87200792214419       31.96083965950322       14.64845762029331
C           16.37995885081158       31.81869094301360       12.78741425888064
H           17.00652611220919       32.69444973116300       12.95622584191664
H           16.90125496671850       31.15907556135712       12.09266545266901
H           16.26234829977082       31.29496873562622       13.73289426793592
C            8.48818607210043       32.54948496026276       12.46834831898208
H            8.48088223920229       33.20931447260862       13.33765243247586
H            8.98469376401157       31.62331407756296       12.75402744416422
H            7.45821529824331       32.32339032743410       12.20022193208912
C            7.23982811612317       33.95672609647340        9.86836704168612
H            6.99447004816472       33.87250328195410        8.81551774824325
C            6.26955135348687       34.22895845651213       10.73462676807928
H            6.46175304111084       34.37057182340764       11.78389730101350
H            5.24685791366677       34.34723223860546       10.41667794014335
C            9.12087983615028       36.11297023472803        5.41366181073083
H            8.74629055375392       37.06634217928149        5.79067942823706
H            8.38361523574801       35.34639993277263        5.64813915956104
H            9.21571581350274       36.18512002138889        4.33199055023262
C           12.06595783138429       36.46751701685482        4.18817841002320
H           12.92368178200369       36.00162357147159        3.71669921985109
C           11.45919463839112       37.47560779858261        3.56998529082824
H           10.63422223286032       38.00611583678820        4.01270957010191
H           11.78681687209642       37.82395153017609        2.60448868579800
C           16.99882026310308       35.37026345303750        5.74832921155073
H           16.78498773301490       36.42978868575018        5.60416199439505
H           16.64432132102091       34.83177085183050        4.86907905166190
H           18.07672986356139       35.24435236268832        5.81491930946151
C           18.31008469053178       34.07219848455091        8.42519095228397
H           18.95759521277608       34.45664490293267        7.64090642558923
H           18.49934059182523       33.00325068696622        8.53217372214904
H           18.58002612602915       34.55817925836945        9.36261074378399
C           11.08608014669596       29.59326598036510        6.35875090654420
H           11.54807017876491       29.39958010168779        5.39043928980311
H           10.08393010395625       29.97726884122202        6.19500091396357
H           11.01486343648995       28.64845116599654        6.89765722498860
N           13.17335088237195       30.35489345042035        7.51481254627216
H           13.70590916264698       29.52253809688150        7.32206166653359
C           11.87737472343279       30.58322527336682        7.13216321172151
C           13.59801934052902       31.44351419233649        8.19424055582801
H           14.57681233954658       31.54485949537665        8.61528019533108
N           12.65101678875215       32.34661461148925        8.26455931577809
C           11.57491216768642       31.82641291753180        7.60851780550056
H           10.66048418117396       32.37553295218685        7.52393771827814
C           14.59411028778725       37.92598304008719        8.90001981943600
H           14.66829237155931       38.75034200529223        8.19340000561070
H           15.10119911371093       37.06227516543875        8.48049144746290
H           15.09456368231030       38.20708029455269        9.82355258837345
C           13.13725343492336       37.60125834543354        9.16617820241975
H           12.62372051901998       37.31881957132389        8.24882825300892
H           12.63096460453441       38.44881533339610        9.62789417184169
S           13.00353211077099       36.19857554410568       10.34965777966427
C           11.38207774199237       36.62229920833552       11.05886016733076
H           11.13787319081688       35.84242992904929       11.77200034349238
H           10.63108644451394       36.65221814485236       10.27564805842833
H           11.45674379958395       37.58102670461798       11.56557578171782



--Link1--
%nprocs=12
%mem=16GB
%chk=155c_II_S.chk
# apfd/def2TZVP empiricaldispersion=GD3BJ int=(grid=ultrafine) geom=check guess=read pop=nbo scf=qc

155c_II_S_nbo

0 1

--Link2--
%nprocs=12
%mem=16GB
%chk=155c_II_S.chk
# apfd/def2TZVP empiricaldispersion=GD3BJ int=(grid=ultrafine) geom=check guess=read scrf=(smd,solvent=Chloroform) 

155c_II_S_solv 

0 1 


