%mem=16GB
%CPU=0-71
%gpucpu=0,1,2,3=0,1,2,3
%chk=1cpt_16_opt.chk
# opt apfd/gen scf=maxcycle=999

1cpt_16_opt

1 6
Fe          36.69440156862792       13.22158253923767       86.95615959815434
N           34.70876508281331       13.25122579879775       87.43581911081705
N           37.11744289530365       12.32224786833186       88.69691977296301
N           38.67884216644830       13.12877414509347       86.42155220525773
N           36.26402794777707       14.05222614072371       85.17329162517250
C           33.68792912705877       13.70911431087455       86.67314425515615
C           32.42668409933980       13.58004393093310       87.37823041937762
C           32.71446279992428       13.03812669582941       88.59388283158520
C           34.15336552159813       12.83145909997616       88.62543028506305
C           36.24270088836277       12.04210584684453       89.71283074597631
C           36.89637161178272       11.43901402069828       90.80411800218047
C           38.25297359527876       11.33066569909088       90.43987377767554
C           38.35289478524393       11.91020394969012       89.12908032670826
C           39.68509404199081       12.58833202412944       87.14782917175665
C           40.94161314025000       12.70144072659256       86.44783405708760
C           40.66785683735743       13.32979809811016       85.25595583403459
C           39.23653554903313       13.59591126549954       85.25343306492641
C           37.14095627458273       14.36974720801241       84.18126279094957
C           36.46609207150641       14.92526922878677       83.06069426637863
C           35.11590012261994       14.93819695947148       83.38660702868390
C           35.01672914005115       14.39049905797226       84.70104033787612
C           33.81970212747075       14.23504174452791       85.39613199383739
H           32.91981170790992       14.55523836252793       84.89606106631885
C           34.84131104135266       12.28693405342175       89.66676878736722
H           34.27788663149227       11.99051977883637       90.53691277079520
C           39.53605766561256       12.00849187650278       88.40528179147027
H           40.42611861409345       11.61130410391826       88.86520391656330
C           38.54182369623411       14.16494161957061       84.22649290636814
H           39.09096253054771       14.46802212455328       83.34935488990725
C           31.80304992499154       12.69652726542869       89.71458891179333
H           31.85889699103931       11.63224098049831       89.94196611289387
H           30.77463047893983       12.94142899208722       89.46646635755336
H           32.08141660915174       13.24751077072201       90.61241519168468
C           31.11412141355648       13.98571236356982       86.81287561777854
H           30.91056136857367       13.44061621006939       85.89168271770212
H           31.11023094286788       15.05072905926944       86.58256260454961
H           30.31109298245391       13.78416746543811       87.51556295482649
C           36.27902047941141       11.07466751056062       92.10504383961495
H           35.93159634811673       10.04006086347859       92.09758944955058
H           35.42749597014499       11.71390483304313       92.32592084277242
H           37.00712713101645       11.18416325628881       92.90553443805173
C           39.34848014446514       10.79402803259504       91.18876684931078
H           40.32888393205133       11.16346227720997       90.91576062825416
C           39.26745186104957        9.87867643912895       92.16180207049305
H           38.34213079572668        9.41185372284984       92.44559428293330
H           40.15022301009113        9.54221435046852       92.67689361852486
C           42.25774444160063       12.27425297765898       86.98510369792768
H           42.41833711602247       11.20905397161522       86.81406137469743
H           42.31593775891962       12.45522600903112       88.05655423123527
H           43.05765085656682       12.82450222746470       86.49535829071390
C           41.56425160185574       13.70050425750020       84.18843023147328
H           41.28897403197774       14.58892770796692       83.63430647909496
C           42.66235055861843       13.03281649672366       83.84007403493794
H           42.95091429125689       12.11114535047879       84.31344260855671
H           43.28953169309080       13.37414389193280       83.03496641621878
C           37.11941164256311       15.37983882710526       81.80594863191689
H           37.62755046161478       14.54884173594857       81.31688881812761
H           37.85931369262811       16.15270194716910       82.01355763080146
H           36.38747210573381       15.78569768294648       81.11411309771256
C           33.96931803835339       15.40656655637824       82.56938214336101
H           33.28437942827974       14.58324757056014       82.36625232086794
H           34.30844721445998       15.81030028535416       81.62013919168271
H           33.41286648811825       16.18288362495166       83.09440032619368
O           37.04177542139632       15.43831102505296       87.91177695111183
H           36.35798276881601       16.09474631127530       87.75156273528880
H           37.88758378717064       15.85641296844762       87.72730409717667
C           35.20385110812826        9.81829697790953       86.86636395456287
H           35.27767897258452        8.73903182713012       86.77709480235856
H           34.21124848599884       10.14630908032846       86.57552453768866
H           35.42263033336945       10.14445427326506       87.87783313556803
S           36.37001391080173       10.59549577098087       85.69649454741986
H           37.47806012478316       10.10084797353694       86.25184159462567

C N H S O 0
6-31G*
****
Fe 0
TZVP
****


