%mem=16GB
%CPU=0-71
%gpucpu=0,1,2,3=0,1,2,3
%chk=1cik_II_S.chk
# polar def2tzvp apfd int=(grid=ultrafine)

1cik_II_S 

0 1
Fe          35.13245880357063        4.00508938605137       10.26555130278034
N           37.03993255931203        3.76357770078506        9.72145057442202
N           34.88092971616363        5.35346848306495        8.80571241876189
N           33.21567424581661        4.25634187142597       10.82354673154868
N           35.40666855475841        2.73313263412686       11.78386843261637
C           37.95599796191182        2.93989496156662       10.29274784299021
C           39.19568332037601        2.95619046605963        9.54772611376009
C           39.01234578204159        3.82921196108993        8.52134486578552
C           37.66086409439256        4.32871635939338        8.65156978279991
C           35.80820721763470        5.74782671216995        7.89073892243296
C           35.25863741005892        6.73105906678037        6.99261363945206
C           33.97528158020255        6.96004005429787        7.41233472736479
C           33.76161490795040        6.07602647114247        8.54301716549460
C           32.32919400560789        5.15587944312137       10.31316032604394
C           31.09982084541499        5.14913571821483       11.06231045784011
C           31.25197222763019        4.20130620736351       12.04070301920890
C           32.59439988645753        3.67857005607575       11.88413965560624
C           34.49686498241105        2.38002423947148       12.72924889140253
C           35.10347002668993        1.53656419617532       13.73711074752053
C           36.40722037399192        1.39612873575776       13.37980229920273
C           36.57363087503341        2.14073500547137       12.14993921297320
C           37.75962655111307        2.20141824952723       11.44492059867886
H           38.59695430031832        1.63575105638660       11.82434099369701
C           37.10591626658029        5.27161356235411        7.80865650391216
H           37.73315169211119        5.66526652018027        7.02309962482133
C           32.56973441804210        5.98986698072620        9.23468994013986
H           31.77299107933429        6.65439561159207        8.93740947302297
C           33.17553829235528        2.78294818978447       12.76430139747447
H           32.56623125806895        2.41613391581290       13.57636593522466
C           39.96066733892365        4.23654383548718        7.44556767861917
H           40.91038950941461        3.71772624141876        7.55023918643421
H           40.15053575265240        5.30930667725725        7.48786935243004
H           39.55027311370424        4.00538866490174        6.46198945646823
C           40.39847832496008        2.14853748744755        9.89743348377535
H           40.14984653100169        1.08782096668622        9.93208258432435
H           40.78357204509368        2.43680440527005       10.87591180188397
H           41.18824250414455        2.29224155988107        9.16409176957933
C           35.96824185606494        7.31772151536855        5.82200555189221
H           36.58863824630857        6.56923931329244        5.33075853259187
H           36.61492115312689        8.14103014653537        6.13003332785517
H           35.24696706788178        7.69928805211427        5.10193278357857
C           32.97901884405610        7.85056612366632        6.85947205241946
H           31.95316210225834        7.50701638846890        6.92748618956312
C           33.22528271462073        9.03059807805514        6.29932775941661
H           34.21705111115483        9.44465073693292        6.24788216878838
H           32.43301921508009        9.63896712865001        5.89532057795261
C           29.89204262217651        5.95744882666955       10.73797247338839
H           29.75369507650068        6.02780206260794        9.66007678301560
H           29.98234943719786        6.97101648145051       11.13260542561230
H           29.00719339174012        5.49715150941272       11.17288731487465
C           30.31485372570508        3.77036643663762       13.05443628911094
H           30.37206429780922        2.72265755161231       13.32730212164409
C           29.42108496521024        4.54503083731771       13.66076379290153
H           29.35123039046377        5.60080132685053       13.46490822719360
H           28.74125597734512        4.15090640925230       14.39799610137897
C           34.38005277924675        0.97995376237324       14.91536305013392
H           33.55494983201652        0.34397675656086       14.59335146543204
H           33.96836862921258        1.78246810676249       15.52790788960880
H           35.04803139864190        0.38532415156862       15.53371430139329
C           37.49732104920456        0.63976863042548       14.05874621739186
H           37.87383353425702       -0.15315979279939       13.41177164841978
H           37.13905357488821        0.18761088904646       14.98037409020639
H           38.32927798259573        1.30105963895091       14.30134735478202
O           35.61699999999909        5.72300000000065       11.67499999999597
H           34.77900000000439        6.09399999999928       11.95099999999890
H           36.42199999999466        5.98599999999989       11.94500000000259
C           32.66589944022655       -0.44257323633018        7.98703133940007
H           33.27711483774892       -1.30435169018575        7.71879146885571
H           31.95802188340166       -0.26177193463334        7.17821357807596
H           32.11023297070979       -0.67752206992331        8.88941039638836
N           34.30524676924982        1.30065795933559        7.24734950450192
H           34.39535634465987        0.96144773926831        6.30374201169519
C           33.51264108979186        0.75432063472003        8.22275714104449
C           34.93314498035716        2.37246054340467        7.78236569315943
H           35.61830581149501        2.99631049736031        7.24608689123661
N           34.58644919924113        2.53750518101956        9.03577774576002
C           33.70490130431570        1.53721673260443        9.32463024687252
H           33.27117379542722        1.44988844669295       10.29887513006788


--Link1--
%mem=16GB
%CPU=0-71
%gpucpu=0,1,2,3=0,1,2,3
%oldchk=1cik_II_S.chk
%chk=1cik_II_Sn.chk
# apfd/def2TZVP int=(grid=ultrafine) geom=check guess=read pop=nbo scf=qc

1cik_II_S_nbo

0 1


