%mem=16GB
%CPU=0-71
%gpucpu=0,1,2,3=0,1,2,3
%chk=1aa4_12_opt.chk
# opt apfd/gen scf=maxcycle=999

1aa4_12_opt

1 2
Fe          28.17725700247495       93.95452114525858       53.03218672022714
N           29.12678855790660       95.62154057867568       52.44291120323658
N           29.24952631568550       93.92886639419822       54.71707430492133
N           27.18473487157970       92.31863604821861       53.63238106097800
N           27.07169150122643       94.01070235159429       51.35726185958293
C           28.98621380183497       96.27202725566490       51.25584840849245
C           29.86692782778238       97.41642512386372       51.19567365273044
C           30.53942976260488       97.44636885166319       52.38061170100337
C           30.07200487868574       96.31119057387926       53.14273239274826
C           30.16781331446295       94.85391954134663       55.11609178635157
C           30.74068298340098       94.48934686034993       56.38520948994751
C           30.15971894857210       93.29774087809251       56.74183819606649
C           29.21752963930615       92.97871745108881       55.68898583100701
C           27.44121201816192       91.57324555164409       54.74485487506861
C           26.54622915298216       90.44791795893526       54.82096433869108
C           25.73075972267067       90.52848945862486       53.72009419605321
C           26.15331917662902       91.70605675379318       52.99167040277160
C           26.06548620283080       93.15779919783311       51.01394911913134
C           25.53948773421340       93.49130339399056       49.71087489773159
C           26.26438340679585       94.55700661380385       49.26525775337173
C           27.21319226315077       94.86931151534544       50.30763972941489
C           28.10713348563717       95.92072898245235       50.24863708709719
H           28.10449592796820       96.52646252842251       49.35668068207733
C           30.54912762549659       95.97084262352936       54.39228959273051
H           31.29977993633834       96.61210138233359       54.82642314654660
C           28.40226753656911       91.86437658062870       55.69522845782663
H           28.50585657068399       91.17725010651768       56.51975386223901
C           25.61879453724046       92.09539145082640       51.77688353650823
H           24.81568644505568       91.50008449946884       51.37240598970417
C           31.55907104753513       98.41613647512449       52.86177768230178
H           31.22864261909928       98.89032824231026       53.78520782389428
H           31.73202561204946       99.19233079318900       52.12219395462094
H           32.50563945032288       97.91379985358681       53.05955950945175
C           29.95943013482735       98.34176031269632       50.03546740832117
H           29.00230087411273       98.83176901472619       49.85914911628754
H           30.23165241141325       97.79704594326977       49.13212128823573
H           30.70803447957896       99.10846307985722       50.21206283979699
C           31.71670588129643       95.30763276516505       57.14987941605380
H           31.48786771334631       96.36742204426980       57.05741794736255
H           32.73165699014842       95.14744718216815       56.78384463328916
H           31.68605973236644       95.03484055186124       58.20201119458197
C           30.37202603869100       92.50110598254672       57.93090077121164
H           29.50217490473132       91.97854106999249       58.30789264281219
C           31.53309007349572       92.37052842391401       58.56436198953953
H           32.43853223628255       92.82758758711498       58.20546417273206
H           31.62071594841904       91.77079745658027       59.45364126520163
C           26.50044705281131       89.46425004440708       55.93286372841856
H           26.66084502955783       89.95534601811825       56.89058634332292
H           27.27309327720252       88.70456263530330       55.80976229207374
H           25.53234445658082       88.96955747979067       55.95298485671724
C           24.64004817125660       89.66368903189904       53.32240596804303
H           23.80717724056016       90.15422490014964       52.83397471887531
C           24.60299034041951       88.34851730430574       53.50758246576321
H           25.42440286295412       87.80676909449089       53.94268987367786
H           23.75387274812473       87.76369908173540       53.19899036560066
C           24.42636422265469       92.76422649850032       49.04537410661961
H           23.52765591187627       92.79336159742486       49.66062463244670
H           24.69225885465326       91.71969493986040       48.88497563126617
H           24.19569178184281       93.21018559805236       48.08242998161760
C           26.15210187052668       95.30208154429732       47.98352900464955
H           25.38229800713552       94.86910612589632       47.35159782371210
H           27.09680788883240       95.27493212963370       47.44171815999756
H           25.89763998625772       96.34549459067395       48.16761712790479
O           26.61997763148933       95.22713220521973       54.04383753305734
H           26.50657569997270       96.10807521512315       53.67243859745802
H           25.74719933326363       94.82608645783847       54.11033866167714
C           30.81720759712021       90.05794627658176       50.03503911626338
H           31.46308449639034       89.35470349182972       50.55911048886053
H           31.33001623668327       90.37779138215818       49.12874018723731
H           29.90152571601401       89.54742664836228       49.75468713140163
N           31.46644049622391       92.03907457436260       51.41971797258948
H           32.45927908554333       91.93661475139059       51.27765410839613
C           30.50115524508672       91.22119609047132       50.89687334308552
C           30.85735582364051       92.99099885718279       52.14912438615265
H           31.37043611220315       93.77017994465004       52.67557676173962
N           29.55295396480425       92.82857764312048       52.12255167059011
C           29.31573857080079       91.73060254830624       51.34676721020662
H           28.32085699186747       91.38098686843918       51.16346782063273

C N O H 0
6-31G*
****
Fe 0
TZVP
****


