%mem=16GB
%CPU=0-71
%gpucpu=0,1,2,3=0,1,2,3
%chk=1beq_II_S.chk
# polar def2tzvp apfd int=(grid=ultrafine)

1beq_II_S 

0 1
Fe          -6.12517838328615       56.62659422627335       20.86892661136056
N           -6.88225698565314       55.72864212566479       22.51096046415246
N           -7.12759427438889       58.28520646585185       21.37978420391127
N           -5.42176017576201       57.55316901316870       19.25958674862677
N           -5.16890116931100       54.94592316926264       20.41246107506463
C           -6.76162219570485       54.41607595147747       22.84574867270164
C           -7.34636119194663       54.16592443961100       24.14144717988405
C           -7.93713529225777       55.33228319415571       24.52442637156348
C           -7.61061197751677       56.30520341736062       23.50804185045839
C           -7.65525484597957       58.57838177285182       22.59948885149727
C           -8.13142430769111       59.93571539402158       22.64861918723620
C           -7.84992994528082       60.48514889515852       21.42693403229440
C           -7.12982209630170       59.46001593885899       20.68112642154694
C           -5.34513346898814       58.90081317431980       19.08780548870530
C           -4.49664237849355       59.23373872399531       17.97657581273356
C           -3.92492060955413       58.05604659234234       17.56864904299177
C           -4.51510552504780       57.02279919111492       18.39729895425370
C           -4.51778710339868       54.71659562356941       19.24359245817141
C           -4.08119116927917       53.33904200217069       19.16386755206993
C           -4.61149773516961       52.71214888310524       20.24556351139113
C           -5.25303628766224       53.74051739590998       21.04203989613406
C           -6.10040972901704       53.45551713882156       22.09398445858564
H           -6.12545174730781       52.43910053511205       22.45661740909402
C           -7.85960836376140       57.65971609983052       23.62010939557876
H           -8.34043230150386       58.00705958231609       24.52230726849093
C           -6.20681590190197       59.79389051816477       19.70910666745165
H           -6.17272385857686       60.82139836794127       19.38055686745881
C           -4.14925233147877       55.68883019230847       18.33327547623438
H           -3.52518370254340       55.38128838197723       17.50818580885042
C           -8.70341965802324       55.63920107210292       25.76581947095397
H           -8.14451352060643       56.32021722271973       26.40934880531836
H           -8.90945229513677       54.73139760657111       26.32744304749958
H           -9.65343685865077       56.11324117295055       25.52034076361369
C           -7.34975697306226       52.84086820853219       24.82394019569713
H           -6.33029708403801       52.48920799207554       24.97873810099174
H           -7.87365675989512       52.09839523174229       24.22148485133879
H           -7.84005899060814       52.90409744107814       25.79207168417308
C           -8.74252031103189       60.58379455875448       23.84205962679141
H           -8.27778362717675       60.22064535096198       24.75742515490656
H           -9.81176129044658       60.37078691662936       23.89782810958114
H           -8.60920813626737       61.66235052732693       23.79046259596685
C           -8.15897677882050       61.80508591589017       20.92900365378988
H           -7.49195354016174       62.19241589624766       20.16830927728910
C           -9.19729489673415       62.55104976870312       21.29657145087038
H           -9.93377729822957       62.20962490975815       22.00249758536733
H           -9.36076024325745       63.52977295651385       20.87673258810497
C           -4.19920023722136       60.61969019766124       17.51925756358807
H           -4.19657023144513       61.30954956149542       18.36181879706841
H           -4.94968516435414       60.96150923796552       16.80451158443156
H           -3.22509911289855       60.65280127411022       17.03530607655026
C           -2.95205878913426       57.82586471475557       16.52496361958687
H           -2.27200663302904       56.99968091603859       16.69716385666544
C           -2.83291721291835       58.53197552957938       15.40464786739169
H           -3.50797037961524       59.33169573192902       15.15485670556363
H           -2.06561682025772       58.31166339103189       14.68069233193783
C           -3.30473326441211       52.76746846947476       18.02740390180816
H           -2.34172867404668       53.27013196683968       17.93006645425126
H           -3.84709953642825       52.89239849574890       17.08931662747362
H           -3.12158731348723       51.70602815345478       18.17888968588241
C           -4.51786865780852       51.28069509675219       20.64943602500010
H           -3.89896980327013       50.72100779908694       19.95251344874983
H           -5.51027703646753       50.82786760678648       20.66628518235794
H           -4.08577943369542       51.18670063748156       21.64577717849257
O           -4.39700000000393       57.18699999999530       22.25199999999673
H           -4.72400000001596       56.64899999999715       22.97300000000428
H           -3.67800000000359       57.71000000000649       22.27000000000002
C           -9.59567185692827       54.59350063044906       16.98509302188676
H           -8.79925607179713       54.36388340336246       16.28411681960649
H          -10.28953014686535       55.28704620242693       16.51001335739700
H          -10.13546871223194       53.67460980183735       17.21438864271131
N           -9.79022459965610       55.56881381824288       19.28340186313169
H          -10.79331622706395       55.49849861595981       19.33807694420524
C           -9.01791509596618       55.18579180403355       18.21821110235286
C           -8.96287842293084       56.05625255829666       20.23450885481295
H           -9.29093379800070       56.43257504155834       21.18124767859169
N           -7.71482920243034       56.00506120605228       19.83737265120501
C           -7.73273726570157       55.46594704662972       18.58526212912869
H           -6.82711525235424       55.31897513952032       18.03467047301958

--Link1--
%mem=16GB
%CPU=0-71
%gpucpu=0,1,2,3=0,1,2,3
%oldchk=1beq_II_S.chk
%chk=1beq_II_Sn.chk
# apfd/def2TZVP int=(grid=ultrafine) geom=check guess=read pop=nbo scf=qc

1beq_II_S_nbo

0 1


