%mem=16GB
%CPU=0-71
%gpucpu=0,1,2,3=0,1,2,3
%chk=1co6_II_S.chk
# polar def2tzvp apfd int=(grid=ultrafine)

1co6_II_S 

0 1
Fe          20.71114494852909      -19.22512330421018       13.76334628523820
N           22.60729622042918      -18.99192253427491       14.31430592314694
N           20.89563352398742      -21.20410624638457       13.89221906056895
N           18.76219272215720      -19.43738590179066       13.28934220801866
N           20.46434553659535      -17.22840264983740       13.73024619140320
C           23.27970851892882      -17.81986379630955       14.44091018446871
C           24.69607617912595      -18.05843420786217       14.61383586482975
C           24.86448181636114      -19.40614484394535       14.55871304342191
C           23.54806793666833      -19.97102849733975       14.35702994541271
C           22.05394623266948      -21.89514144210503       14.05949484806012
C           21.81743547271174      -23.31863127313895       13.96798248216018
C           20.48928625306892      -23.46816069456460       13.71315617841983
C           19.93350483369611      -22.13417630833269       13.66150271299509
C           18.07038753204422      -20.60346005290422       13.21510005734796
C           16.69840298713341      -20.36179072142041       12.81380368970414
C           16.57748971032088      -19.00363351066110       12.68255420092302
C           17.87370239525216      -18.45281129119229       12.98326811043034
C           19.34605670803169      -16.53677947390086       13.39364491321981
C           19.56228065678945      -15.10995351096593       13.53698172337318
C           20.84159794364886      -14.97014419074756       14.00646546237058
C           21.38489914823688      -16.30028079044061       14.10495241149261
C           22.70314487607502      -16.56572588223593       14.43448282864424
H           23.34574229617527      -15.72119547617139       14.63167206656925
C           23.29385623610042      -21.32903542342340       14.29486547645646
H           24.13554322268196      -21.99834499919652       14.38981837736725
C           18.60141563935191      -21.86570922559236       13.41076698684599
H           17.94181016409901      -22.71016476938481       13.28242015290093
C           18.15507053395941      -17.09719087273632       12.97268288417742
H           17.36177133556319      -16.42654388329523       12.68003234985758
C           25.71293596632035      -16.98431114087811       14.79482043719168
H           25.49124358010691      -16.39074183493234       15.68225140434180
H           25.71839061566757      -16.31556653381481       13.93397085689260
H           26.70816836624743      -17.40764326568624       14.90620855366099
C           26.11689903290738      -20.20747921645960       14.66082295013185
H           26.26416278737403      -20.80053777478228       13.75819500449570
H           26.06987046105365      -20.89034175301128       15.50984125835789
H           26.98080878839676      -19.56028947184375       14.79041038037923
C           21.54993899744370      -13.72434239390327       14.41006141511657
H           22.20835812554855      -13.37440380802301       13.61299953268331
H           22.15693489819269      -13.89817471670415       15.29727607230803
H           20.82889911137888      -12.93898196001055       14.62811320218587
C           18.57210640551869      -14.09254616128714       13.26360725857577
H           17.54227230206809      -14.37778697103181       13.44568435616764
C           18.82813308358722      -12.87010981878653       12.80861956377848
H           19.82479694878078      -12.54648467981420       12.56465802732807
H           18.03974054669346      -12.15553685621934       12.63922603464595
C           15.36058646476137      -18.20913780186768       12.35866928888818
H           15.35086533405766      -17.91985315993359       11.30615975238583
H           15.32231633042682      -17.30013910704990       12.95723482167193
H           14.46723755148030      -18.79650228728384       12.56124624943171
C           15.69481228904583      -21.38960552735140       12.64822789379301
H           15.78716278450963      -22.24482025751809       13.30785897853201
C           14.70334706125712      -21.36299618320521       11.76346214405524
H           14.59074328616070      -20.56311094305408       11.05249066797097
H           13.98028213393076      -22.15954922859448       11.70329907490904
C           19.70164254695477      -24.71627743755395       13.50688968977859
H           19.23937342184517      -24.71832668384354       12.51890603468832
H           18.90867106682499      -24.79733193361109       14.25059396503595
H           20.33834830840307      -25.59367849905129       13.58928136617804
C           22.87579520852757      -24.35855752287351       14.11002046337829
H           22.46463265958386      -25.35258011568265       13.95214449839806
H           23.31698221622877      -24.32408655396691       15.10671165850500
H           23.67192957073173      -24.19696987642627       13.38319296091193
C           18.26304302781401      -18.29740502029472       18.69774482866140
H           18.82894096591505      -17.74536132716342       19.44812010625087
H           17.77269722934064      -19.13710934910161       19.19025343850313
H           17.50146483401304      -17.64298361473364       18.28548173670449
N           20.21241701441657      -19.61214498657262       17.83568364543811
H           20.48688070194779      -19.98368116512198       18.73028682240005
C           19.15409826733892      -18.77135196031208       17.60869993544881
C           20.81168555340411      -19.84657170129356       16.64718783841590
H           21.67112492369451      -20.47105148517721       16.51805325053382
N           20.19790904842541      -19.20626280985473       15.68324178039693
C           19.16520851452522      -18.53331083181026       16.26411727291014
H           18.50317994218382      -17.92677843685229       15.68201966247786
C           21.44726903713877      -21.80892091603317       10.44291761552820
H           20.91773992373369      -22.59664050863591        9.91055505872883
H           21.73278517025312      -22.18322119012503       11.42137694112013
H           22.35098573402902      -21.55810388152867        9.89246849983122
C           20.55802372772599      -20.58843356066151       10.58218866478874
H           19.64875666188239      -20.82357812404721       11.13243513017564
H           20.30339581983541      -20.18354976346109        9.60321106427563
S           21.44363116898388      -19.25609063161333       11.49297325346191
C           20.68586024911733      -17.82731073868360       10.65972434753028
H           19.60964252762698      -17.84806952568151       10.79826780048932
H           20.94706608686734      -17.85250066080997        9.60496645348837
H           21.09751403742926      -16.93748056000451       11.12327241588963


--Link1--
%mem=16GB
%CPU=0-71
%gpucpu=0,1,2,3=0,1,2,3
%oldchk=1co6_II_S.chk
%chk=1co6_II_Sn.chk
# apfd/def2TZVP int=(grid=ultrafine) geom=check guess=read pop=nbo scf=qc

1co6_II_S_nbo

0 1


