%mem=16GB
%CPU=0-71
%gpucpu=0,1,2,3=0,1,2,3
%chk=1cpq_II_S.chk
# polar def2tzvp apfd int=(grid=ultrafine)

1cpq_II_S 

0 1
Fe          26.24172314397573       19.37600952769677       22.89259398388293
N           25.28354358231430       20.52591954261736       21.57835089138060
N           24.99842439243951       17.87534305012956       22.50622781806026
N           26.98270871320971       18.34993718603625       24.45226789614817
N           27.25715529175828       21.00088930916177       23.52534437839533
C           25.53253384441404       21.83028065824969       21.26905775526315
C           24.70814776405126       22.26628757720560       20.16494016509906
C           23.93686517330809       21.20040750933956       19.82162026348345
C           24.31029897103932       20.12497304108778       20.71232391006699
C           24.05186792217265       17.82890513581762       21.52712146032362
C           23.43395071144670       16.52351073880107       21.46888575113422
C           24.00493731027162       15.78658181952966       22.45882044977133
C           24.97485297441319       16.64796011822258       23.09717723339367
C           26.67502872316701       17.07290915143027       24.80969675100032
C           27.42043474640252       16.66777568113790       25.98434780870181
C           28.19254510730280       17.74427849043418       26.32939284055622
C           27.90415406745544       18.77431670555093       25.36504639308682
C           28.18296292330589       21.05611059160508       24.52176258867494
C           28.84796743980950       22.34332631616588       24.54294773161966
C           28.26909251416271       23.08281081078959       23.54668652554709
C           27.28353068686350       22.23097619134180       22.93402124696763
C           26.47422665251913       22.62875119411057       21.88451871637181
H           26.57506785579434       23.64329795785637       21.53050184431095
C           23.73646821274103       18.86858674361083       20.67507856545702
H           22.97041309336438       18.69303236916735       19.93547582753271
C           25.76151468067661       16.26082214497557       24.16397340406215
H           25.61939002636569       15.26227775542041       24.54808120028562
C           28.47050131082129       20.03392631821084       25.40244307117301
H           29.18771527174994       20.23495047042916       26.18310081977340
C           24.73675950771896       23.63926185935672       19.58603716996466
H           25.72720121448268       23.87152532297381       19.19313976942913
H           24.49309151810210       24.38021501060511       20.34749067218098
H           24.01755051495611       23.73202359922629       18.77615846862631
C           22.89969026807502       21.08927750626697       18.75764606137182
H           21.93134513074401       20.84205782170648       19.19285998366093
H           23.16128569179945       20.30501246706779       18.04692445016864
H           22.80110893079983       22.02571457621178       18.21419281854341
C           28.61148838882871       24.45934619674592       23.09363999331459
H           27.90737509037922       25.18747799724834       23.49934690021921
H           28.57907453703895       24.52930062431605       22.00707302077065
H           29.61155391653134       24.72477919078237       23.43023790423559
C           29.90898151542702       22.70686810082134       25.45718946529442
H           30.57735456412707       21.90193142714466       25.74069173939801
C           30.11154376206022       23.92025109716696       25.95953024955985
H           29.45366989829057       24.74498948245674       25.74796408726594
H           30.93483047918050       24.12447501165416       26.62387261871695
C           29.19266566807136       17.85420357945280       27.42641187431784
H           28.77293025770247       18.38418211676834       28.28286794366689
H           30.07400834928551       18.39952923344788       27.09195861446959
H           29.49959728527284       16.86244285513288       27.75224987928956
C           27.32893305554401       15.36706630353252       26.61143993807072
H           27.15260832535044       14.53393648503995       25.94066778793940
C           27.43508773344402       15.13323414975523       27.91514995867890
H           27.56113039187309       15.92738399434574       28.62999552067579
H           27.37037026477638       14.13538679994723       28.31619322085016
C           23.73139684068833       14.38008933222711       22.86791888662304
H           23.35441085131186       14.34758056829556       23.89111311436023
H           24.64169128788883       13.78155032428645       22.82337499722474
H           22.98959194717052       13.92521236467188       22.21541981607120
C           22.36764424000832       16.14200907719864       20.50071006375791
H           22.09967967227098       15.09427708570503       20.61284157611063
H           22.70482606662114       16.30322727619659       19.47663828887951
H           21.47259247444183       16.74387461485214       20.66111143820348
C           29.96069940737808       16.42570472509065       19.95687445788607
H           31.01659416186667       16.62369226632243       20.14013384642054
H           29.81457724637433       16.32410505680215       18.88174658573458
H           29.69472135972951       15.48828640970298       20.43482148606380
N           29.22499909974746       18.81582706618590       20.07406662965269
H           29.86360350977438       19.15185308369953       19.37193743702930
C           29.11767114349476       17.51917089825555       20.50253903152094
C           28.32683363439105       19.55326525712612       20.76576400434797
H           28.18919497117315       20.60806442252462       20.63734596393009
N           27.65474671512899       18.80211332409761       21.60856776888859
C           28.13795559427031       17.53233390546883       21.45360615603433
H           27.74931040910046       16.72073602598176       22.03473104905403


--Link1--
%mem=16GB
%CPU=0-71
%gpucpu=0,1,2,3=0,1,2,3
%oldchk=1cpq_II_S.chk
%chk=1cpq_II_Sn.chk
# apfd/def2TZVP int=(grid=ultrafine) geom=check guess=read pop=nbo scf=qc

1cpq_II_S_nbo

0 1


