%mem=16GB
%CPU=0-71
%gpucpu=0,1,2,3=0,1,2,3
%chk=1cyo_12_opt.chk
# opt uapfd/gen scf=maxcycle=999

1cyo_12_opt

1 2
Fe          33.37574218774727       20.23981667283476       34.29502353153700
N           33.14653079325482       18.44053173463680       35.15187386339079
N           34.04996319492692       19.35925980204861       32.61757652819075
N           33.60826367971309       22.04995941913699       33.44306859494359
N           32.69839153158713       21.12039683259306       35.96925337553699
C           32.69175643949914       18.18512397158858       36.40669366115622
C           32.67182922809449       16.76137200213294       36.65972774326397
C           33.12511894201501       16.16273018150152       35.52297824429681
C           33.41744496104008       17.22896429005366       34.59140327252010
C           34.19571892705077       18.02268774941541       32.39868271852882
C           34.69137476462100       17.77542890188388       31.06954735713486
C           34.83887671416941       19.00517228267837       30.47936182885472
C           34.44030582841522       19.98031806455016       31.47419761915496
C           34.06333959145596       22.30296614075586       32.18412854778237
C           34.08604746016671       23.71975703290446       31.92769052261352
C           33.62369375124078       24.32621078310552       33.06871610109688
C           33.33944631004893       23.25862107750774       34.00390203283204
C           32.54023411175699       22.45554020198113       36.18475405776496
C           32.01891557975782       22.69687213689847       37.51085030258289
C           31.86887286210426       21.47322044843019       38.09199930555997
C           32.29811055124977       20.50128209615706       37.11262656442754
C           32.29420795449733       19.13620603033346       37.32722494179234
H           31.95152055379894       18.78545915150253       38.28782747917217
C           33.90271591140070       17.02425023951903       33.31406072145815
H           34.06001324601070       16.00326145570456       33.00283196516483
C           34.44286656365181       21.34485296969097       31.26102215188789
H           34.75945635559027       21.69390926923887       30.29081885844929
C           32.83342365353339       23.45695706810532       35.27718000217094
H           32.64820860321296       24.47380867028050       35.58678670535101
C           33.31008530309528       14.71647154819773       35.22787392842444
H           33.01943107750415       14.10885543116298       36.07983785533039
H           34.35295222461423       14.50278388042933       34.99488562487600
H           32.70450232118644       14.41869886115557       34.37231941207384
C           32.22890371671125       16.14309835171026       37.93759493969763
H           31.19237368296610       16.40381867379548       38.14936835806293
H           32.84242372720699       16.49611285204439       38.76591599738087
H           32.30683304662687       15.06073490049711       37.89099091083533
C           35.02447124023307       16.43790597317723       30.51379369581598
H           34.12930597266123       15.93841394917006       30.14126436451486
H           35.47272368898591       15.80178879964409       31.27472704442128
H           35.72567542273860       16.54220626298818       29.68916914204694
C           35.31860011239544       19.32766721792903       29.15241681544714
H           35.89070946837096       20.24339093084945       29.06999314552659
C           35.10075456205685       18.59764160440854       28.06383328670130
H           34.49794018613779       17.70669113293626       28.08111956020729
H           35.49625021262639       18.88849920158761       27.10600461784382
C           34.58553140141726       24.35680537476905       30.68169997496554
H           33.82085524129464       24.34019582468266       29.90424785489511
H           35.46072981396357       23.83197713924286       30.30354176824450
H           34.85587599543201       25.39234517999411       30.87471046680324
C           33.45772068803030       25.73652325510874       33.35207569284771
H           33.64810499631795       26.03551964549601       34.37560795906156
C           33.08923632504347       26.65511359735377       32.46588588191121
H           32.84120268245552       26.40480989129787       31.44938300508960
H           32.99532422499737       27.69175572093932       32.73971670695340
C           31.72842125205362       24.04637044102492       38.06605490647613
H           30.99928117105074       24.56807791855958       37.44670020762968
H           32.63468392035026       24.65063206406366       38.10143144156557
H           31.32939875467450       23.97107122061545       39.07336272952026
C           31.37098821549999       21.13101722264255       39.45109481952034
H           31.10949115374926       22.02825244126481       40.00463385022881
H           32.13276268772750       20.59112817145192       40.01263675822527
H           30.48682895290826       20.49763054045131       39.38617890873980
C           28.52521432035954       18.63231956697615       31.96759542667192
H           28.23304868437661       19.10193024830008       31.02901134852403
H           27.64397658161813       18.57279216655120       32.60526663337600
H           28.87274604638178       17.62549105613517       31.75930593823135
N           29.44014980226656       20.71220781506128       33.01721245566505
H           28.60298892027161       21.26029550695446       32.89573301883714
C           29.60037258198964       19.40854921361309       32.62978068887260
C           30.59024297147878       21.12308805602975       33.58134014981756
H           30.74980372039187       22.10578382805417       33.97659913071016
N           31.47940431357593       20.15604454764318       33.57761442473485
C           30.87738816280135       19.08203079065964       32.98824705558202
H           31.39520435554228       18.15408816553169       32.86170354698944
C           38.68429129637423       19.15216575657544       35.76691538031551
H           38.92275504126204       19.11608972144784       36.82929328363571
H           39.47695512746761       19.70156766719549       35.26035680923484
H           38.66224746422913       18.13817659529330       35.38063622082075
N           37.11017068569620       21.09130197004145       35.93040989458829
H           37.76244496965591       21.70912851096146       36.38740133635730
C           37.37117852404858       19.80315683480380       35.54586286621329
C           35.84073603568937       21.37811631028995       35.58967826777789
H           35.36623591876827       22.32091869079374       35.77174517555112
N           35.27259490318177       20.34620931447954       35.00827493921134
C           36.21338639576749       19.35778956774919       34.97391174009561
H           35.99969948211361       18.40081620104059       34.54522403768823

C N H 0
6-31G*
****
Fe 0
TZVP
****


