%mem=16GB
%CPU=0-71
%gpucpu=0,1,2,3=0,1,2,3
%chk=1cie_II_S.chk
# polar def2tzvp apfd int=(grid=ultrafine)

1cie_II_S 

0 1
Fe           2.76927937653077       20.75440151843026       13.03253116148135
N            4.24592631701510       19.70241280343681       12.20640037532607
N            3.40190647823002       20.15300520644657       14.84196657494932
N            1.30901945877735       21.80950407380050       13.90319151258119
N            2.16352558581576       21.36365596852784       11.23380855100845
C            4.52780060896927       19.62609962167573       10.87978598090870
C            5.53377901686114       18.61682080405444       10.62798293892877
C            5.81390504551803       18.05143608729555       11.83197807992922
C            5.02836258634531       18.77164779910949       12.80985192840606
C            4.30759524479396       19.17727287734623       15.11362599902524
C            4.39329822864267       18.93655547014343       16.53596849365573
C            3.50357568847691       19.78570132597821       17.11852000111915
C            2.89001771710171       20.53083833984959       16.04250582318248
C            1.18470530287829       22.08802242690258       15.22647573993344
C            0.12258696381232       23.04730152393857       15.45259064847504
C           -0.38473677504345       23.34706971499602       14.21542285219708
C            0.39254832449062       22.59094491844693       13.26741082979684
C            1.12465420549028       22.19413440414092       10.96557619436860
C            1.09835392414569       22.54023951095970        9.55710254120372
C            2.18521892501419       21.91925185705547        8.99821557068714
C            2.83918262801027       21.20631981035945       10.06477044852010
C            3.94643491617586       20.39458033771918        9.88961642725074
H            4.33533268993592       20.29126537287000        8.88802515225188
C            5.07397287545631       18.52144311059422       14.16804937965506
H            5.75072756198308       17.75539884705812       14.51449465590804
C            1.92318413085066       21.50017441021892       16.23641506238932
H            1.67408419734557       21.75639694406009       17.25466564570968
C            0.20500498032034       22.64999000189056       11.89531174141853
H           -0.61561244215394       23.24915760782372       11.53076810659353
C            6.06640333095127       18.27688735117222        9.27829139757443
H            6.52278377348523       19.15181137432397        8.81442013000115
H            5.26468752600493       17.92839508602169        8.62675693269150
H            6.81824701161349       17.49420750078429        9.34533338704284
C            6.75072914078117       16.94012531842003       12.16184459286557
H            6.21847721862890       16.13339787255244       12.66582773561856
H            7.54478110091158       17.28713153329963       12.82439281945068
H            7.20785529331980       16.53830510319307       11.26096693829517
C            2.68879630920261       22.01218602779263        7.59994526152623
H            2.38382306875193       21.14069451030598        7.01744938338305
H            3.77668402442804       22.06287415623175        7.58635995277881
H            2.29168631472710       22.90317629709654        7.11746146578235
C            0.11857087172308       23.40401172285151        8.93802492424543
H           -0.28601755410685       24.18379076387687        9.57364804149782
C           -0.31529964434629       23.31107409850810        7.68473251549354
H            0.01302786230810       22.53155392756115        7.01979287727367
H           -1.03822843222327       24.00462706033955        7.28749607170757
C           -1.44892827746521       24.32922090494156       13.86709523408555
H           -2.40901730916966       23.82937764990133       13.72423574502899
H           -1.20402874865929       24.85647784725098       12.94621476332256
H           -1.55882365324560       25.05941140579304       14.66663944195476
C           -0.26132350641453       23.55723465847596       16.74962857378442
H            0.54254855703870       23.65083676419676       17.47093566786728
C           -1.49342610580073       23.90033987110560       17.11178317586451
H           -2.33827885994417       23.78670961393209       16.45518430263763
H           -1.70317793863961       24.28697830476910       18.09550978684201
C            3.16811878539233       19.95695074428051       18.56021765039856
H            2.11216788019058       19.74924833940870       18.73511328739592
H            3.36873415430620       20.97902554006499       18.88292552150664
H            3.75662078484176       19.28180740357184       19.17667130104469
C            5.28956515796003       17.92537233549361       17.16482391948511
H            5.05937668368424       16.92599293667121       16.79426368324650
H            5.17393545871734       17.92432728267260       18.24593935906695
H            6.33299255887531       18.13948117261056       16.93158388062571
C            5.00702934185368       25.85930223620644       12.88846485673545
H            5.26432774204883       26.32220315018936       13.84123772978363
H            4.10752711192444       26.33038846592024       12.50465561224829
H            5.82288729198614       26.04180736505788       12.18914640270321
N            5.73964737387445       23.54819029811296       13.51671888531276
H            6.67816383107871       23.80607316705241       13.77427085361723
C            4.77220660744846       24.40311104508675       13.05743366715515
C            5.20452642537405       22.30757777775302       13.55724211594812
H            5.73110974097303       21.43273873476462       13.87736913113925
N            3.95843718863245       22.32555208888706       13.15221185031822
C            3.67452105227471       23.62111361936745       12.83798609162941
H            2.70785035351015       23.90438449098693       12.47632063174667
C            1.09683076288564       17.50116524709957       15.30576166032742
H            1.09520026996327       16.54965420176247       14.77915718290854
H            0.53897452613758       17.39145630072217       16.23381106208634
H            2.12358109291545       17.75921441960713       15.54726749077616
C            0.46777694710822       18.58135862032801       14.44699235462793
H            0.47067055390805       19.54252885413295       14.95748940579719
H           -0.55158430618582       18.31125396256689       14.17341879892256
S            1.40622353546157       18.77339804365944       12.87500389920764
C            0.00806048480323       19.17457742487127       11.78248962710689
H            0.42170196360824       19.35685412378675       10.79665476236875
H           -0.49372639167437       20.06807936923054       12.13969081405670
H           -0.67164009940221       18.32693181869836       11.75066697482028


--Link1--
%mem=16GB
%CPU=0-71
%gpucpu=0,1,2,3=0,1,2,3
%oldchk=1cie_II_S.chk
%chk=1cie_II_Sn.chk
# apfd/def2TZVP int=(grid=ultrafine) geom=check guess=read pop=nbo scf=qc

1cie_II_S_nbo

0 1


