%mem=16GB
%CPU=0-71
%gpucpu=0,1,2,3=0,1,2,3
%oldchk=1ccj_II_S.chk
%chk=1ccj_III_Dn.chk
# apfd/def2TZVP scf=maxcycle=999 geom=check pop=nbo

1ccj_III_D

1 2


