%mem=16GB
%CPU=0-71
%gpucpu=0,1,2,3=0,1,2,3
%chk=1ch1_II_S.chk
# polar def2tzvp apfd int=(grid=ultrafine)

1ch1_II_S 

0 1
Fe          35.22155190577607        4.02256624588145       10.33892544552242
N           37.12168550218079        3.76450753607199        9.78044771760031
N           34.97264454515003        5.35027447516087        8.84415891695404
N           33.33571167987897        4.38657043128731       10.94750417123494
N           35.48690510648409        2.78535413575333       11.87429309678502
C           38.02065295134094        2.91555161943663       10.34396793905078
C           39.26922995683421        2.93233972013416        9.61344750629928
C           39.09979792645331        3.80949277850257        8.58833835143979
C           37.74625390029916        4.30750939074287        8.70166985987577
C           35.88389240521401        5.68292258462008        7.88936540397284
C           35.33907889385817        6.64959031754625        6.97046984114256
C           34.05070661738620        6.87837695841336        7.37398759491857
C           33.84541409709183        6.04586532140278        8.54416986930871
C           32.45010039608581        5.26865003802478       10.40686452095227
C           31.25224018160675        5.34697762405493       11.20079491203697
C           31.43737493196278        4.49843989228708       12.26148010769259
C           32.74382056334247        3.90051055443192       12.07008847703005
C           34.58084371535357        2.46362070458528       12.83432097080233
C           35.15124904396834        1.53393399099568       13.78595335813366
C           36.44233201005735        1.34520146318123       13.40499350947601
C           36.62414153390495        2.11401885449274       12.19226961615322
C           37.79919162773825        2.13930524873437       11.46655396430261
H           38.61549793533946        1.52632438089195       11.81724345622276
C           37.17620123857026        5.19189385590441        7.80790304832677
H           37.79491286442940        5.54638347642115        6.99739436438581
C           32.66877798477685        6.02015167908510        9.26564286654066
H           31.86860478314893        6.66529596360594        8.93670353266147
C           33.29732477340070        2.96641370854026       12.92818516118136
H           32.69994946505765        2.64291987171886       13.76694246391882
C           40.06098020649013        4.21870087152923        7.52478949049922
H           39.68136306314065        3.95097219607863        6.53795985303282
H           41.02260943993142        3.73087950194750        7.66404440980679
H           40.21758166899997        5.29733302040977        7.54435621086263
C           40.46708850992221        2.12230900432690        9.97473165176400
H           40.22945814838583        1.05848328557465        9.95561905599547
H           40.81148632302823        2.37301660621508       10.97823839015564
H           41.28201561482118        2.30370008252608        9.27816937092888
C           36.04558116060848        7.19779852760268        5.77948074307126
H           36.65825111373367        6.43216316600463        5.30536793422805
H           36.69938910823231        8.02472327765544        6.06140324183504
H           35.32287802982314        7.56437466993121        5.05316372974333
C           33.04925904884380        7.74270936171824        6.78983712397193
H           32.02697048143647        7.38916293803756        6.86164136867392
C           33.28626230480413        8.90761967110861        6.19521282334020
H           34.27380267807968        9.33094515073782        6.13760964939929
H           32.49010653295250        9.49440242394433        5.76759092377380
C           30.05315818556724        6.16378110401896       10.86635415997605
H           29.86594935861227        6.15010609387773        9.79365647924403
H           30.18994329294981        7.20294501124175       11.17087386136459
H           29.17780980679628        5.76835860940642       11.37764686058189
C           30.54397087804622        4.19870292667772       13.35828309548797
H           30.58797850139819        3.18341605392571       13.73554400342321
C           29.70499279568736        5.05843559641087       13.92728593773325
H           29.65154590664258        6.09078435184579       13.62849180783348
H           29.05628080620176        4.76186254477502       14.73482523908161
C           34.41979334646158        0.97612607914060       14.95872245972205
H           33.52466458204718        0.44522731716294       14.63406881853257
H           34.11232040842012        1.77379066002434       15.63584916318162
H           35.04756394327975        0.28142818532641       15.51138984185178
C           37.50022620321509        0.50517729486640       14.03468345812012
H           37.82056658624141       -0.28391242681154       13.35365774681815
H           37.13438208084987        0.04197593892573       14.94777413284915
H           38.37168875129250        1.11111056241478       14.28293764546534
O           35.78600000000490        5.75499999999989       11.69600000000377
H           34.96199999999683        6.14499999999466       11.98599999999298
H           36.60199999999720        6.00299999999766       11.94700000000083
C           32.63358247592953       -0.43683510342573        8.23568678833481
H           33.22558061465877       -1.32518285518407        8.01561432791292
H           31.93928595228727       -0.27711453086745        7.41086938722063
H           32.06270204109856       -0.61480273379090        9.14148961672023
N           34.33452623514595        1.21883754807846        7.43768740750894
H           34.43125321716749        0.82758678312469        6.51511836395980
C           33.50878150659445        0.74771694076521        8.42475325645035
C           34.98547955466018        2.29820037500890        7.92841005160088
H           35.69857495905723        2.87308778256129        7.37399458431212
N           34.62228137294825        2.53826440037470        9.16509915600329
C           33.70472443843457        1.58163598726917        9.48794117206119
H           33.25080254109856        1.55942395664027       10.45677756358687


--Link1--
%mem=16GB
%CPU=0-71
%gpucpu=0,1,2,3=0,1,2,3
%oldchk=1ch1_II_S.chk
%chk=1ch1_II_Sn.chk
# apfd/def2TZVP int=(grid=ultrafine) geom=check guess=read pop=nbo scf=qc

1ch1_II_S_nbo

0 1


