%mem=16GB
%CPU=0-71
%gpucpu=0,1,2,3=0,1,2,3
%chk=1cpr_II_S.chk
# polar def2tzvp apfd int=(grid=ultrafine)

1cpr_II_S 

0 1
Fe          26.45801891258393       19.42431588705900       19.12576023588273
N           27.42509326998915       20.60967828171959       20.43886123180056
N           27.03153253928323       20.60732644682849       17.64471009299901
N           25.16390059495046       18.50190319736889       17.93554841144524
N           25.67900583111091       18.44396779029966       20.71367016100714
C           27.50740866048586       20.48290850419890       21.79430490936703
C           28.33852383356076       21.51826458614011       22.36447095972921
C           28.76558431494619       22.27943011713243       21.32244618757448
C           28.18947389015573       21.69691280802184       20.13111921165923
C           27.85613010372423       21.68765908527121       17.70543623067946
C           28.00102461109645       22.30160804923118       16.40522823943132
C           27.24815315706503       21.56160904198795       15.54828500471787
C           26.63026401260450       20.52289334210490       16.34336683663507
C           24.94506128424475       18.75793713176514       16.61620199319317
C           23.89484486317044       17.91019696427842       16.08941360675027
C           23.48712056819770       17.12457707269244       17.13408849674883
C           24.27738119997954       17.51963644233011       18.27182105312911
C           24.76011983953691       17.43915119932861       20.67288514517032
C           24.65699042025322       16.77600216983032       21.95737253734038
C           25.50260741013985       17.45086688233980       22.79686304646921
C           26.08959190569794       18.50519803805789       22.01304920589582
C           26.92578052434645       19.47532802666814       22.53518976057421
H           27.11622489888446       19.45809324535972       23.59731254279472
C           28.43020482498305       22.18158217117993       18.86023690991160
H           29.06641579528676       23.04856456551112       18.76988261784206
C           25.64141972036617       19.68536921798833       15.86296400446064
H           25.37719326056113       19.78246795247044       14.82099942596742
C           24.06931914072112       17.03370165254710       19.54824095055399
H           23.32043253531280       16.26674637983723       19.67238728353358
C           28.61573698235165       21.66567180104407       23.82126941582289
H           29.13520450949385       20.78719791089137       24.20587761742096
H           27.68531659227539       21.77860179861316       24.37759052691382
H           29.23574447836608       22.53849095894847       24.00998622232731
C           29.64080912693599       23.48526964494970       21.33112804857403
H           29.11692700579625       24.34067722164625       20.90449817999985
H           30.54086614895312       23.31084565633226       20.74108123055179
H           29.93998377832791       23.73831145145050       22.34526939839418
C           25.83352261996125       17.15873397048165       24.21896434930308
H           26.89097325133311       17.33296301071869       24.41370051295586
H           25.60188644858999       16.12090972282526       24.44980487912354
H           25.25706851441964       17.79653093251805       24.89100783193248
C           23.82322044906045       15.62467635421974       22.22716930848507
H           23.68647624000721       14.94174945833268       21.39670585932959
C           23.22786781205410       15.35692374329032       23.38463494667915
H           23.28716409331364       16.02215920176324       24.22811360996871
H           22.63026609932129       14.47025227553939       23.51763934940671
C           22.47764103033515       16.03065881491883       17.13306704571988
H           21.52059163697588       16.38427911818784       17.52000243983633
H           22.80779372525267       15.20128857689706       17.75682994389557
H           22.32442066036163       15.66556054156949       16.11948744859836
C           23.43101670616199       17.92526766111921       14.71918650274195
H           24.17998832453345       18.16283281520767       13.97248998811342
C           22.18476349820232       17.68433652240089       14.32591971453150
H           21.39032911490089       17.49232071087231       15.02552937589953
H           21.90998868859081       17.69982734418873       13.28424510145237
C           27.02311586353105       21.74800505797037       14.08706281773855
H           25.98616471792712       22.02246549879049       13.89036865236885
H           27.23790446924168       20.82690975454237       13.54556922848527
H           27.66383518965267       22.53395430993130       13.69494659806701
C           28.83099621241448       23.50895901759613       16.13463427736402
H           28.79326101010049       23.77639359610708       15.08094501567212
H           29.87101166641195       23.32792605155694       16.40690123742415
H           28.47207086945114       24.35745942827893       16.71672063812487
C           30.15914605673877       15.81918480069479       17.01607730619364
H           30.06367210220280       14.77010601703856       17.29527543280931
H           31.21539810295721       16.08558943318981       17.04821988957132
H           29.79969194308088       15.94271297788801       15.99948795407708
N           29.60490129360317       16.73353069103618       19.27981657143124
H           30.30905951889489       16.21061776458745       19.77425437404201
C           29.37011097427838       16.68182843694071       17.93122615364420
C           28.72277925472410       17.60601506275339       19.81788975257257
H           28.67430096667617       17.84584256670626       20.86106094665154
N           27.94073896218159       18.11175228133386       18.89124420737249
C           28.33445171262718       17.54411304865504       17.71116627570811
H           27.84699965419349       17.79440073593010       16.79081752943807


--Link1--
%mem=16GB
%CPU=0-71
%gpucpu=0,1,2,3=0,1,2,3
%oldchk=1cpr_II_S.chk
%chk=1cpr_II_Sn.chk
# apfd/def2TZVP int=(grid=ultrafine) geom=check guess=read pop=nbo scf=qc

1cpr_II_S_nbo

0 1


