%mem=16GB
%CPU=0-71
%gpucpu=0,1,2,3=0,1,2,3
%chk=1cmu_II_S.chk
# polar def2tzvp apfd int=(grid=ultrafine)

1cmu_II_S 

0 1
Fe          -5.97887714890150       57.21796931738824      111.65624253886135
N           -6.80864810860149       56.26825929553458      113.22127915477284
N           -6.91609393403550       58.90543895131776      112.23148856151519
N           -5.10428078334900       58.21859536131824      110.17518837671237
N           -5.05453849194982       55.54605963116341      111.11763100502121
C           -6.63947661315243       54.95833053421447      113.54724547992234
C           -7.22800553643989       54.67061776534138      114.83571639970999
C           -7.78353406104366       55.83448247017669      115.26977716204229
C           -7.47861532217072       56.82843888960478      114.26496328074565
C           -7.62346766660523       59.10792478898843      113.37698462833755
C           -8.18176399876287       60.43470652369732      113.40924001017615
C           -7.73602075224399       61.06736137449224      112.27844183269943
C           -6.88539777968618       60.10790705639732      111.59797984674032
C           -5.24620412380611       59.53568985703995      109.86434634613707
C           -4.38517267629578       59.90180609255004      108.76911386596637
C           -3.71335632488802       58.76149999255171      108.41212376264302
C           -4.21022364323049       57.71624264440759      109.28561537462652
C           -4.31361030249006       55.37076253468964      109.99344660966595
C           -4.04436896121946       53.96627995918461      109.77106300061413
C           -4.58889958860777       53.30306166051564      110.82559101342164
C           -5.24382271197442       54.30494289881978      111.63887539346908
C           -5.96823869161326       54.02026435298612      112.78109986829307
H           -5.98203718459708       52.99602829373040      113.12247416949187
C           -7.86002608222301       58.15217881828760      114.35036042120127
H           -8.41308712118828       58.45509898949248      115.22615650448448
C           -6.11425501884572       60.41190997790341      110.49335500096070
H           -6.17226977212740       61.41633559916696      110.10267734927655
C           -3.85953982919419       56.38351064022463      109.17023227203039
H           -3.21366373824222       56.10645372714149      108.35083350537415
C           -8.52574912595660       56.11433080964279      116.53153027107710
H           -8.62881741258047       55.21130390816957      117.12821925207507
H           -9.52322331238099       56.49406908946020      116.30959678749706
H           -8.00520098615714       56.86316344578127      117.12941163247437
C           -7.22136322920924       53.32799336800331      115.48301955850002
H           -6.19913472137998       52.97785769192561      115.62752914966526
H           -7.74293964849887       52.59894497157227      114.86218639768640
H           -7.71129841871571       53.36356849423690      116.45296412873095
C           -9.00433390367374       60.99323978447887      114.51762449319483
H           -8.64067679859508       60.64264436312837      115.48241993600810
H          -10.04760168653835       60.68820366566466      114.42045005573881
H           -8.96100863214305       62.08043738844200      114.50413412792841
C           -7.99461557701522       62.41518076608889      111.82632840569266
H           -7.18865214668660       62.89197339501584      111.28026171445956
C           -9.12491859088865       63.08970354775393      112.01468426144586
H           -9.97802329520290       62.65468828871188      112.50556628376741
H           -9.24364262927256       64.09946309673452      111.65818310937750
C           -4.21825970852746       61.28149986015588      108.23367350195585
H           -4.30588798123416       62.01849226949746      109.03034488641740
H           -4.97819431521114       61.50397067151277      107.48236448333139
H           -3.23897632614163       61.38513638695541      107.77050881795464
C           -2.69972819625665       58.56935288075318      107.39978442813369
H           -1.96267903372714       57.80618143191204      107.62209984324041
C           -2.60758403750080       59.23422285290678      106.25217091868865
H           -3.33391178776737       59.96919698534883      105.95276762565042
H           -1.80821840704616       59.04357922906816      105.55530158014993
C           -3.27053926152308       53.43069211847244      108.61570557740166
H           -2.24138765870393       53.79080160301312      108.64137811670913
H           -3.71747149950235       53.75378844875845      107.67565337200222
H           -3.25261693121145       52.34360790953590      108.63224349339050
C           -4.60064586635200       51.84228423097177      111.12204801709747
H           -4.03293845506604       51.29142763874534      110.37620709059699
H           -5.62142902320889       51.45839334748379      111.12986213505437
H           -4.15968813466236       51.64776569845093      112.09991221706468
O           -4.27099999998583       57.68999999999146      113.07899999999860
H           -4.56299999999274       57.29200000000105      113.89900000000296
H           -3.53699999997523       58.17900000002539      112.96400000001245
C          -10.23096999318890       54.64626330069212      109.10158678825965
H          -10.15829933219331       54.46380382927634      108.02949150182194
H          -11.23827223270021       55.00130503062464      109.31929408905222
H          -10.07185006881825       53.70903768543287      109.62550835822719
N           -9.16988268216369       56.91454783079554      109.04178660544673
H           -9.79526454202959       57.30193830285233      108.35439104880446
C           -9.21597205643936       55.63834792397642      109.53832232580395
C           -8.13913599602799       57.55115270752589      109.64222739345240
H           -7.86807643381138       58.56874175849275      109.44974463401037
N           -7.53012724001991       56.75613222014846      110.48847357299054
C           -8.18868599678326       55.56266558574156      110.43459603582498
H           -7.88275207982695       54.73542160072564      111.04034668849835


--Link1--
%mem=16GB
%CPU=0-71
%gpucpu=0,1,2,3=0,1,2,3
%oldchk=1cmu_II_S.chk
%chk=1cmu_II_Sn.chk
# apfd/def2TZVP int=(grid=ultrafine) geom=check guess=read pop=nbo scf=qc

1cmu_II_S_nbo

0 1


