%nprocs=12
%mem=16GB
%chk=1abs_II_S.chk
# polar def2tzvp empiricaldispersion=gd3bj apfd int=(grid=ultrafine)

1abs_II_S 

0 1
75
 xtb: 6.6.1 (8d0f1dd)
Fe          34.79870748479161        4.03264486822318       10.44066619603742
N           36.73196055403964        3.89451106234842        9.93617016150189
N           34.53057987555623        5.36089082386536        8.97182790258598
N           32.96333390178719        4.43653992911839       11.14422321830512
N           35.17754189044657        2.98026163282660       12.10136257578849
C           37.68084466340171        3.11198128762627       10.52144810773211
C           38.90355649430908        3.11528943865405        9.75132398410983
C           38.68711457200149        3.94701715112722        8.69771228938211
C           37.33370810697416        4.43552186299621        8.83806903459761
C           35.43175702612687        5.74585605787948        8.02277296077448
C           34.82208032198386        6.61505233532940        7.05027836700338
C           33.53077824620890        6.80714634691507        7.46264329709188
C           33.37822394127246        6.02419201931530        8.67328931902238
C           32.05015340457194        5.29360399796905       10.60220826216121
C           30.88025595885295        5.40382904254473       11.43338828316565
C           31.11790256744561        4.62265026509711       12.53228258115955
C           32.43056798638964        4.04142450700097       12.33338129749235
C           34.33214352412347        2.72950264721281       13.14077394738215
C           34.96238729874899        1.89044260796394       14.13374931107541
C           36.24363770218100        1.70812284456175       13.71746250549249
C           36.35409815646957        2.37968655259089       12.44223751619925
C           37.51372050320178        2.39948838249092       11.69305630705273
H           38.36221025316464        1.84871771648806       12.06934937157174
C           36.74708556641721        5.32142520716942        7.95888376430390
H           37.35582838658146        5.69868954985132        7.15165937376028
C           32.21751983218802        5.99139373389159        9.41927980952022
H           31.39949598846270        6.61490062116548        9.09205433710819
C           33.03973262356793        3.20257510822797       13.24603556519491
H           32.49045825892019        2.95131766172736       14.14026901122281
C           39.60976411732613        4.33119615764258        7.59250558551917
H           40.56717006784223        3.82634749719312        7.69500324511969
H           39.78735957185985        5.40671286880647        7.59910994265042
H           39.18217199205821        4.06476193729138        6.62572100437644
C           40.12597645759038        2.34258817242651       10.11165930393193
H           39.91181259144201        1.27410775572269       10.14280576544787
H           40.49124751013797        2.64219252979134       11.09367732616611
H           40.91781805612352        2.51231995976506        9.38686536163707
C           35.49255111186819        7.14184906058104        5.83000435742823
H           36.15717840813280        6.39350617749618        5.40116946314622
H           36.08592789691619        8.02732025662940        6.06361340575762
H           34.74759260131707        7.41469111478006        5.08522790655169
C           32.47963365256103        7.58868867960434        6.84833933772461
H           31.47528422098475        7.19718186518381        6.96371993826302
C           32.65358648625291        8.72491635108443        6.18140463156251
H           33.61874999806214        9.18927908196389        6.08182312093102
H           31.82319041912019        9.25184524321161        5.74130044320454
C           29.65899052999409        6.18493124234934       11.09538492732265
H           29.42788977734149        6.10014944796133       10.03437420586587
H           29.79639937653399        7.24224702749578       11.32690652044101
H           28.81065649715075        5.81486095128639       11.66746274093097
C           30.27061068335873        4.37508527997709       13.67876549290997
H           30.33769316089037        3.38063550378981       14.10496760142615
C           29.44515936731393        5.25814016382404       14.23039028278001
H           29.37300840558341        6.27236806821610       13.87854415618175
H           28.82860717738405        5.00117178732254       15.07582296118784
C           34.29700508312123        1.41892564873922       15.38065351634710
H           33.39465490169903        0.85580049267411       15.14287090908178
H           34.01276794280216        2.26489297166779       16.00706309389161
H           34.96115579162414        0.77685747589125       15.95394271504139
C           37.35150121495673        0.95585664067521       14.37141062110245
H           37.68776856880602        0.13377950891960       13.73859949879803
H           37.02824892293781        0.54439195782595       15.32429283599846
H           38.20224466980771        1.61244979953163       14.55330510918072
C           32.06301533656764        0.47278831958846        7.12693363236533
H           32.51399681758632        0.22344399079832        6.16638241233969
H           31.23908901136481        1.15866428466946        6.95654698404469
H           31.67054681674129       -0.44352806446152        7.56739733328619
N           34.18208998193818        0.45050008388894        8.45872282864985
H           34.44114944271505       -0.49236808835744        8.21882073395046
C           33.05865868669457        1.10536898940062        8.02825162717372
C           34.86967078697551        1.29614343156256        9.25918750359434
H           35.79438787267143        1.04997675455484        9.74086859286618
N           34.25063816137025        2.45041044578813        9.36207496647110
C           33.12096773878469        2.34427204103679        8.59893930140111
H           32.43502702550138        3.16260387203715        8.51530809814438



--Link1--
%nprocs=12
%mem=16GB
%chk=1abs_II_S.chk
# apfd/def2TZVP empiricaldispersion=GD3BJ int=(grid=ultrafine) geom=check guess=read pop=nbo scf=qc

1abs_II_S_nbo

0 1

--Link2--
%nprocs=12
%mem=16GB
%chk=1abs_II_S.chk
# apfd/def2TZVP empiricaldispersion=GD3BJ int=(grid=ultrafine) geom=check guess=read scrf=(smd,solvent=Chloroform) 

1abs_II_S_solv 

0 1 


