%nprocs=12
%mem=16GB
%chk=2gsm_II_S.chk
# polar def2tzvp empiricaldispersion=gd3bj pbe1pbe

2gsm_II_S 

0 1

 C                 20.41700000   48.64600000   55.56300000
 C                 21.11700100   47.33200100   55.90000200
 N                 20.54500000   46.15000200   56.06100100
 C                 22.46600000   47.15700100   56.18299900
 C                 21.46900000   45.29299900   56.43899900
 N                 22.63600000   45.88299900   56.52000000
 Fe                24.39399900   44.96200200   56.89300200
 C                 25.43400000   44.39199800   53.73899800
 C                 22.94100000   41.95999900   56.98099900
 C                 24.09300000   45.17699800   60.30199800
 C                 26.10899900   47.90100100   56.89600000
 N                 24.21400100   43.43899900   55.54399900
 C                 24.67799900   43.38000100   54.30699900
 C                 24.28900000   42.18199900   53.70399900
 C                 23.57000000   41.49000200   54.67300000
 C                 23.55500000   42.29800000   55.77999900
 C                 22.87900000   40.12799800   54.54100000
 C                 24.56100100   41.71099900   52.29200000
 C                 25.91900100   41.02800000   52.18500100
 C                 26.18600100   40.46500000   50.78699900
 O                 25.93100000   39.28099800   50.60200100
 O                 26.64699900   41.16099900   49.88700100
 N                 23.68899900   43.73500100   58.40000200
 C                 22.99700000   42.61100000   58.20399900
 C                 22.34900100   42.17499900   59.36100000
 C                 22.69599900   43.11100000   60.35200100
 C                 23.52100000   44.04000100   59.69900100
 C                 21.42000000   40.96600000   59.44599900
 C                 22.42300000   43.13499800   61.73799900
 C                 22.43400000   41.92499900   62.60200100
 N                 25.04500000   46.27999900   58.34999800
 C                 24.82300000   46.21099900   59.66400100
 C                 25.35600100   47.31700100   60.32400100
 C                 25.88999900   48.17400000   59.34899900
 C                 25.68100000   47.47900000   58.15200000
 C                 25.20500000   47.49499900   61.82000000
 C                 26.50499900   49.47200000   59.54499800
 C                 26.92200100   50.07400100   60.87200200
 N                 25.57099900   45.97300000   55.54100000
 C                 26.10899900   47.20500200   55.69500000
 C                 26.70700100   47.64199800   54.52700000
 C                 26.50499900   46.62300100   53.62699900
 C                 25.81600000   45.61800000   54.29900000
 C                 27.48900000   48.94300100   54.23099900
 C                 27.05600000   46.55600000   52.22700100
 C                 28.46800000   45.94100200   52.29000100
 C                 29.15900000   45.84100000   50.93700000
 O                 28.55999900   45.58100100   49.89799900
 O                 30.35500000   46.02999900   50.91600000
 H                 21.02982115   49.21577958   54.89614059
 H                 19.47706583   48.43963923   55.09519771
 H                 20.25344349   49.20363598   56.46143830
 H                 19.57682587   45.94342896   55.91969835
 H                 23.22647897   47.90836075   56.13794044
 H                 21.29215713   44.25914362   56.65058741
 H                 30.95959427   45.28886176   50.99834902
 H                 29.07229648   46.54169434   52.93722158
 H                 28.39303328   44.95859413   52.70731955
 H                 27.10999964   47.54128367   51.81323764
 H                 26.42289153   45.94385212   51.61926040
 H                 27.59778993   41.24214870   49.78206613
 H                 26.68268634   41.73877310   52.42266946
 H                 25.95945837   40.22705079   52.89333960
 H                 24.54022590   42.55320723   51.63233820
 H                 23.79797502   41.01965826   52.00089979
 H                 25.77120304   44.21366506   52.73930231
 H                 28.42308160   48.70039079   53.76890394
 H                 26.91561415   49.56189509   53.57289660
 H                 27.66934787   49.46684535   55.14640150
 H                 23.49808756   39.37047694   54.97435023
 H                 21.93836849   40.15442246   55.05032711
 H                 22.71822803   39.90841991   53.50618705
 H                 22.34168243   41.07388444   56.95820763
 H                 21.89640682   40.18881667   60.00628697
 H                 20.50963345   41.24917921   59.93173790
 H                 21.20302014   40.61287336   58.45952988
 H                 23.96186369   45.27071770   61.35978809
 H                 26.03872546   48.04809301   62.19932686
 H                 24.30013388   48.02750451   62.02628908
 H                 25.16942967   46.53518900   62.29159254
 H                 26.49055537   48.89961288   56.85029375
 H                 27.86006507   50.57570713   60.75699437
 H                 26.18019517   50.77431227   61.19478402
 H                 27.02013012   49.29697313   61.60104134
 H                 26.68135580   50.06122458   58.66943380
 H                 23.31026612   41.93311796   63.21599755
 H                 21.56301126   41.92259775   63.22350952
 H                 22.43663869   41.04851400   61.98826891
 H                 22.19549939   44.07707022   62.19147823

--Link1--
%nprocs=12
%mem=16GB
%chk=2gsm_II_S.chk
# PBE1PBE/def2TZVP empiricaldispersion=GD3BJ int=(grid=ultrafine) geom=check guess=read pop=nbo scf=qc

2gsm_II_S_nbo

0 1

--Link2--
%nprocs=12
%mem=16GB
%chk=2gsm_II_S.chk
# PBE1PBE/def2TZVP empiricaldispersion=GD3BJ int=(grid=ultrafine) geom=check guess=read scrf=(smd,solvent=Chloroform) 

2gsm_II_S_solv 

0 1 
