%mem=16GB
%CPU=0-71
%gpucpu=0,1,2,3=0,1,2,3
%chk=1cce_II_S.chk
# polar def2tzvp apfd int=(grid=ultrafine)

1cce_II_S 

0 1
Fe          -5.68449267687497       56.67666575937231      111.94723487540382
N           -6.42910857017974       55.74071209333470      113.55467539775887
N           -6.79701219636584       58.29490799860920      112.41914919547209
N           -4.98224930821015       57.66453522005400      110.35041076616966
N           -4.57699396228452       55.08658279190562      111.50322100821602
C           -6.18003183671400       54.45528884530157      113.91941652493865
C           -6.78486219960743       54.16063851249927      115.19732483327722
C           -7.43589141014285       55.29273315462599      115.58220573024745
C           -7.18738968242029       56.27267939580063      114.55021559658830
C           -7.51601600639248       58.48789620605307      113.55714281187774
C           -8.18178203696403       59.76770053130259      113.53586304266392
C           -7.80023062262113       60.37819943433432      112.37319294264172
C           -6.90118495555090       59.44934567119685      111.71340271021317
C           -5.26696531515728       58.93658610608056      109.96050309638096
C           -4.46373975047011       59.31630632239095      108.82811118785771
C           -3.71019529518858       58.21732119045416      108.50545681088725
C           -4.07776934722270       57.18907634106504      109.45630829048645
C           -3.91673060464669       54.90029053544730      110.32979125627575
C           -3.55030277369764       53.51060719276413      110.15810211670070
C           -4.07252613575119       52.84685417790092      111.22234740358344
C           -4.73161206967296       53.84524719943623      112.03690775139118
C           -5.43601837547589       53.54752346066446      113.18654306253195
H           -5.40333389928512       52.52992995412897      113.54399703621000
C           -7.67147124557958       57.56555408923770      114.57616266818246
H           -8.25381079804079       57.86133071294658      115.43479891174587
C           -6.20241993804041       59.75822294637361      110.56415432745786
H           -6.36158185173050       60.73355869660008      110.13087837188375
C           -3.59967675996259       55.89110445732599      109.42061780319543
H           -2.97930984634195       55.61447244869720      108.58198592086300
C           -8.22251011048091       55.55483007687144      116.82037310891442
H           -8.26613634898602       54.66638371746784      117.44539055016493
H           -9.24195243338318       55.84920925675865      116.57118809544497
H           -7.77107550701699       56.36041062819351      117.40040051875138
C           -6.68960569962143       52.84387863311208      115.88827508698751
H           -5.64673427415582       52.58061742114734      116.06568684910350
H           -7.13724319028831       52.05736906959114      115.28004417777288
H           -7.20399168956833       52.87036119936217      116.84570481478505
C           -9.12220425272277       60.26175824064554      114.57874144068164
H           -8.57604391471166       60.65077361451962      115.44031520256375
H           -9.77079986908566       59.45863770024997      114.92571221227678
H           -9.74120251727855       61.06056476119252      114.17554932453254
C           -8.17131561503857       61.67721410305719      111.85383538679200
H           -8.27396993931136       61.74009580225242      110.77630361573956
C           -8.37498731659043       62.76612045701572      112.58762190004457
H           -8.23864900919168       62.77016831090313      113.65534558123244
H           -8.66012364656171       63.70388774231417      112.14008890933897
C           -4.44796349259047       60.66788167792033      108.20444104589650
H           -4.53719232496155       61.44325814954264      108.96378134242194
H           -5.27777500082803       60.78366241253460      107.50479102186085
H           -3.51782175732681       60.81645906197194      107.65984837650875
C           -2.74163344573866       58.04427531255678      107.44459376508398
H           -1.91083991447356       57.38708307088041      107.67407896719133
C           -2.80964214838119       58.60511166679814      106.24183258752339
H           -3.63615977194797       59.22768841862489      105.94593734178605
H           -2.04803793528522       58.43930270974496      105.49801943499858
C           -2.78702726016531       52.97971004775955      108.99392258938322
H           -1.81421528457680       53.46583867356316      108.92015836393239
H           -3.32748508546654       53.16373633956469      108.06493917969192
H           -2.62784559467369       51.90864685757656      109.09153080098891
C           -4.02788430383600       51.39320407590068      111.54649986937348
H           -3.53598411891998       51.22863997839811      112.50549715643864
H           -3.48259509007952       50.84341106430951      110.78343036558212
H           -5.03620983306087       50.98355706670561      111.60961447599804
O           -4.28399999999489       57.39400000000105      113.19499999999714
H           -4.49600000000220       57.02800000000158      114.05400000000007
H           -3.59200000000239       57.91800000000369      113.00200000000024
O           -7.10099999999721       55.96100000000300      110.70799999999747
H           -7.00299999999788       56.42599999999285      109.87699999998422
H           -7.68999999997229       55.31799999995751      110.88499999999999


--Link1--
%mem=16GB
%CPU=0-71
%gpucpu=0,1,2,3=0,1,2,3
%oldchk=1cce_II_S.chk
%chk=1cce_II_Sn.chk
# apfd/def2TZVP int=(grid=ultrafine) geom=check guess=read pop=nbo scf=qc

1cce_II_S_nbo

0 1


