%mem=16GB
%CPU=0-71
%gpucpu=0,1,2,3=0,1,2,3
%chk=1c75_05_opt.chk
# opt uapfd/gen scf=maxcycle=999

1c75_05_opt

0 5
Fe          11.14388046052339       24.01928004672756        1.98792468526784
N           11.54629151670297       26.00621873161859        2.12035967497772
N           12.37817807426492       23.88439955484158        0.40118053077377
N           10.65281303834533       22.03223258267105        1.76088078070653
N            9.83710950994480       24.15946568350302        3.52611283793968
C           10.95303350147333       26.89243260540205        2.97589495925720
C           11.51215375145473       28.21289371130928        2.77524838882940
C           12.45915479106436       28.09422350384368        1.80410838443878
C           12.46326197637118       26.70573587243084        1.39628681925058
C           13.20119217473816       24.86622030488903       -0.08115683893452
C           13.96127634564065       24.37646846835392       -1.18424633993946
C           13.57440855834002       23.06643857097985       -1.37696957511098
C           12.59996343326624       22.77848910303200       -0.37517225747815
C           11.12059712629268       21.17998821133414        0.80402537131912
C           10.57231303620326       19.85620548810345        1.01550230407925
C            9.80527632059264       19.93314706926378        2.15536290433523
C            9.86604805883911       21.29865226674463        2.60346992005834
C            9.16048278897969       23.13484690621935        4.11904487650524
C            8.34864811668682       23.63213872802569        5.19104191221606
C            8.56771532873690       25.01196985571619        5.23043970699842
C            9.49165362449659       25.30351492007514        4.19741191627161
C           10.00239001301773       26.58232490862756        3.91889478149233
H            9.62832786488410       27.39297168033693        4.52494703911014
C           13.25154903820879       26.18266672343077        0.39196747615045
H           13.93349723754274       26.85258550881171       -0.10889555088575
C           11.99696917846767       21.52864664728797       -0.20382354288206
H           12.28144347050740       20.75963383828493       -0.90544062268222
C            9.18041013761196       21.80212166768752        3.69520188159485
H            8.56577389179725       21.10822646667167        4.24744756780867
C           11.08488366602161       29.42340723743553        3.53056025481761
H           11.27198182779445       29.29514948288308        4.59710953373077
H           10.01803025508969       29.59852821569160        3.39357654056619
H           11.62404243053254       30.30408990602899        3.19073703363288
C           13.34167012070684       29.13942154519389        1.21383968969184
H           13.13594913839518       29.25403898583820        0.14937806680093
H           14.39054724805129       28.86410988550641        1.32652915182215
H           13.18475789866002       30.09946566082096        1.69889546128151
C            8.01932339046419       25.98911744918072        6.21124194895133
H            7.09769089886085       26.44186240268120        5.84016725546043
H            8.73295725599498       26.78858059948976        6.40153319098594
H            7.80032972876040       25.48951262321031        7.15298522904405
C            7.51184754691745       22.82088237679404        6.03370732001441
H            7.82084203972452       21.78685352061705        6.13875652770509
C            6.40754164196982       23.21593213293299        6.66876140427646
H            6.00713393069750       24.20852504304185        6.56879621481233
H            5.84854800405729       22.53697619377103        7.29091716772957
C            9.09027368528765       18.83507664982274        2.86137096145349
H            8.03345990170120       18.81833717931690        2.58869729468790
H            9.15617392660384       18.96578938019109        3.94034707744891
H            9.52816217842986       17.87414906325705        2.59874536271082
C           10.84414728578004       18.71396305246734        0.17447966540548
H           11.81394738677395       18.71135700373701       -0.30915340405192
C           10.00936466832680       17.70433501138425       -0.05588047288436
H            9.01466820260037       17.67589615417902        0.35285848656979
H           10.28772347182749       16.87951296366004       -0.69051679955983
C           14.04745252857627       22.09721750140864       -2.40577477440748
H           14.76027001894237       22.56531740101019       -3.07993005743140
H           13.21016745946336       21.72631191018911       -2.99763435536937
H           14.53242319181657       21.24079664115472       -1.93535994454924
C           14.95398172439960       25.17904483111956       -1.95453639432559
H           14.46553588090123       26.01575343119391       -2.45571515004831
H           15.44329759041007       24.56844104833508       -2.70910981087252
H           15.72021250368029       25.58438027104506       -1.29301767206499
C           14.64291664523298       21.67684584657556        6.23947506914376
H           15.09796496273656       22.32772849951397        6.98614022613782
H           15.39234814348727       20.95500985705278        5.91452339599648
H           13.82007276220016       21.13989592451939        6.70109121992712
N           14.95651463873309       23.25435808572476        4.31915093230525
H           15.94813951499401       23.37226071784031        4.44959945686703
C           14.13814468768441       22.46688397177470        5.08877113341734
C           14.18967195653692       23.82947056962254        3.36728182268658
H           14.56132987141686       24.50003094118728        2.61894258629721
N           12.94217083588518       23.45948362826388        3.48318554781751
C           12.89157521214054       22.61172673588571        4.54865581378201
H           11.96574409095802       22.16687901178696        4.85137544335337
C           10.12214287605885       24.79313892003938       -2.10969018243247
H           10.44716184179295       24.23509937849056       -2.98534412536588
H           11.00073117074251       25.11985366563277       -1.55916599871705
H            9.57050316976442       25.67217971483178       -2.43468017407983
C            9.25268974906935       23.91758245961041       -1.22992538404263
H            9.79029389477278       23.02488221633876       -0.90978056016518
H            8.33303639594529       23.63323718579456       -1.74370526423199
S            8.76314690487430       24.83821022779069        0.28047726465671
C            7.60556122774442       23.62110554167721        0.97325781446636
H            8.11569878859228       22.67293700946643        1.11097823142949
H            6.75551877255642       23.51233192776438        0.30452306232583
H            7.27877089289061       24.00559558202561        1.93345067289437

C N H S 0
6-31G*
****
Fe 0
TZVP
****


